! NanoVNA MATLAB Controller & Analyzer Export
! Date: 29-Jul-2026 17:02:37
! Freq Range: 20.000 kHz - 1000.000 kHz (501 pts)
# Hz S RI R 50
20000 1.00034101e+00 -1.46143683e-01
21960 9.96390173e-01 -1.48981210e-01
23920 9.92346306e-01 -1.52972782e-01
25880 9.88456323e-01 -1.64732715e-01
27840 9.85300269e-01 -1.76370296e-01
29800 9.75079952e-01 -1.80545445e-01
31760 9.68678163e-01 -1.90209709e-01
33720 9.66309796e-01 -2.01936097e-01
35680 9.63135872e-01 -2.13903054e-01
37640 9.59540503e-01 -2.25178960e-01
39600 9.56028864e-01 -2.36145974e-01
41560 9.54548053e-01 -2.49615851e-01
43520 9.50411577e-01 -2.60281478e-01
45480 9.46000539e-01 -2.70965915e-01
47440 9.42132442e-01 -2.82361318e-01
49400 9.38161563e-01 -2.93731708e-01
51360 9.33815229e-01 -3.04831818e-01
53320 9.28578837e-01 -3.16364221e-01
55280 9.24782801e-01 -3.28365673e-01
57240 9.19674770e-01 -3.39481584e-01
59200 9.13972856e-01 -3.50431777e-01
61160 9.08355747e-01 -3.61503350e-01
63120 9.02545477e-01 -3.72421166e-01
65080 8.95795969e-01 -3.82571056e-01
67040 8.88806936e-01 -3.92625785e-01
69000 8.82821758e-01 -4.02779000e-01
70960 8.76523687e-01 -4.12601051e-01
72920 8.70133648e-01 -4.22320330e-01
74880 8.63804411e-01 -4.32264916e-01
76840 8.57853918e-01 -4.42759423e-01
78800 8.51039510e-01 -4.53275917e-01
80760 8.43425421e-01 -4.63892204e-01
82720 8.36089493e-01 -4.75041723e-01
84680 8.27802041e-01 -4.86128323e-01
86640 8.18745212e-01 -4.97044313e-01
88600 8.09128371e-01 -5.07845419e-01
90560 7.99514786e-01 -5.18825779e-01
92520 7.89174643e-01 -5.29807994e-01
94480 7.77984876e-01 -5.40629048e-01
96440 7.65811882e-01 -5.51405570e-01
98400 7.52691457e-01 -5.62046545e-01
100360 7.38317225e-01 -5.72490375e-01
102320 7.22475913e-01 -5.82357042e-01
104280 7.05816386e-01 -5.91939847e-01
106240 6.86880433e-01 -6.00233095e-01
108200 6.66164517e-01 -6.06948731e-01
110160 6.43729179e-01 -6.11307815e-01
112120 6.19956714e-01 -6.12348647e-01
114080 5.96552153e-01 -6.10692473e-01
116040 5.75135942e-01 -6.08199505e-01
118000 5.52898219e-01 -6.05359505e-01
119960 5.27741456e-01 -6.03504139e-01
121920 4.94893289e-01 -6.01164436e-01
123880 4.49359922e-01 -5.89327808e-01
125840 3.92615951e-01 -5.51570718e-01
127800 3.53918546e-01 -4.72827513e-01
129760 3.64479447e-01 -3.86627442e-01
131720 4.01652987e-01 -3.17467795e-01
133680 4.54169626e-01 -2.61412770e-01
135640 5.28024535e-01 -2.17687970e-01
137600 6.27483998e-01 -2.10628481e-01
139560 7.07906807e-01 -2.56804924e-01
141520 7.47377049e-01 -3.18030849e-01
143480 7.60334585e-01 -3.71353297e-01
145440 7.61138867e-01 -4.14182504e-01
147400 7.55423106e-01 -4.48528913e-01
149360 7.45523130e-01 -4.76139342e-01
151320 7.33321524e-01 -4.96934171e-01
153280 7.21410208e-01 -5.10389559e-01
155240 7.13357456e-01 -5.18776015e-01
157200 7.09832399e-01 -5.25854328e-01
159160 7.09731238e-01 -5.33857329e-01
161120 7.11995445e-01 -5.44640134e-01
163080 7.14093640e-01 -5.60179887e-01
165040 7.11798212e-01 -5.78522880e-01
167000 7.05342660e-01 -5.95955593e-01
168960 6.96764502e-01 -6.11128088e-01
170920 6.87172042e-01 -6.24216715e-01
172880 6.77297910e-01 -6.35681765e-01
174840 6.67436564e-01 -6.45899930e-01
176800 6.57791065e-01 -6.55110244e-01
178760 6.48132980e-01 -6.63513336e-01
180720 6.38454926e-01 -6.71278259e-01
182680 6.28686106e-01 -6.78277649e-01
184640 6.18796020e-01 -6.84362332e-01
186600 6.08986118e-01 -6.89134935e-01
188560 6.00112438e-01 -6.92759177e-01
190520 5.92807361e-01 -6.95663465e-01
192480 5.86907423e-01 -6.98913900e-01
194440 5.81935377e-01 -7.02868976e-01
196400 5.77478102e-01 -7.08105833e-01
198360 5.72515052e-01 -7.14432179e-01
200320 5.66593106e-01 -7.21525658e-01
202280 5.59577586e-01 -7.28234172e-01
204240 5.52037190e-01 -7.34323628e-01
206200 5.44217614e-01 -7.39776222e-01
208160 5.36432177e-01 -7.44721236e-01
210120 5.28778587e-01 -7.49041163e-01
212080 5.21089498e-01 -7.53477036e-01
214040 5.13873025e-01 -7.57612164e-01
216000 5.06732137e-01 -7.61696477e-01
217960 4.99566063e-01 -7.65728916e-01
219920 4.92348552e-01 -7.69676425e-01
221880 4.85607301e-01 -7.73176049e-01
223840 4.78562444e-01 -7.76665933e-01
225800 4.71763533e-01 -7.80165720e-01
227760 4.65130907e-01 -7.83705558e-01
229720 4.58449928e-01 -7.87333484e-01
231680 4.51586499e-01 -7.91024441e-01
233640 4.44650764e-01 -7.94738002e-01
235600 4.37470376e-01 -7.98148455e-01
237560 4.30210014e-01 -8.01194003e-01
239520 4.23063889e-01 -8.03992458e-01
241480 4.16126307e-01 -8.06598182e-01
243440 4.09381578e-01 -8.09186727e-01
245400 4.02693014e-01 -8.11774067e-01
247360 3.96071735e-01 -8.14390531e-01
249320 3.89428450e-01 -8.16937249e-01
251280 3.82769734e-01 -8.19471111e-01
253240 3.76110520e-01 -8.21922235e-01
255200 3.69471948e-01 -8.24316132e-01
257160 3.62800683e-01 -8.26692396e-01
259120 3.56072612e-01 -8.29008063e-01
261080 3.49302503e-01 -8.31142605e-01
263040 3.42464128e-01 -8.33054385e-01
265000 3.35728723e-01 -8.34694770e-01
266960 3.29138593e-01 -8.36157562e-01
268920 3.22793543e-01 -8.37396494e-01
270880 3.16859420e-01 -8.38575295e-01
272840 3.11261551e-01 -8.39818073e-01
274800 3.05905770e-01 -8.41396488e-01
276760 3.00608424e-01 -8.43287002e-01
278720 2.95235411e-01 -8.45578170e-01
280680 2.89395621e-01 -8.48020399e-01
282640 2.83254786e-01 -8.50531265e-01
284600 2.76827967e-01 -8.52765660e-01
286560 2.70287235e-01 -8.54747411e-01
288520 2.63723596e-01 -8.56454507e-01
290480 2.57319914e-01 -8.58037073e-01
292440 2.51050599e-01 -8.59485235e-01
294400 2.44858812e-01 -8.60988380e-01
296360 2.38683266e-01 -8.62670543e-01
298320 2.32513431e-01 -8.64310730e-01
300280 2.26261089e-01 -8.66077255e-01
302240 2.19747477e-01 -8.67895324e-01
304200 2.12988110e-01 -8.69631209e-01
306160 2.05954680e-01 -8.70968189e-01
308120 1.98764196e-01 -8.72067185e-01
310080 1.91491534e-01 -8.72673165e-01
312040 1.84399764e-01 -8.72890278e-01
314000 1.77611153e-01 -8.72862979e-01
315960 1.71162850e-01 -8.72666051e-01
317920 1.64887624e-01 -8.72449677e-01
319880 1.58992903e-01 -8.72265618e-01
321840 1.53212883e-01 -8.72176727e-01
323800 1.47479423e-01 -8.72136191e-01
325760 1.41778060e-01 -8.72189415e-01
327720 1.36129949e-01 -8.72311724e-01
329680 1.30309516e-01 -8.72496799e-01
331640 1.24511389e-01 -8.72636961e-01
333600 1.18662236e-01 -8.72760208e-01
335560 1.12768386e-01 -8.72897865e-01
337520 1.06784772e-01 -8.72926267e-01
339480 1.00779663e-01 -8.72839958e-01
341440 9.47125035e-02 -8.72634265e-01
343400 8.86150027e-02 -8.72269552e-01
345360 8.25442829e-02 -8.71682747e-01
347320 7.65344404e-02 -8.70949306e-01
349280 7.05814458e-02 -8.69954902e-01
351240 6.48631719e-02 -8.68711681e-01
353200 5.95356653e-02 -8.67248680e-01
355160 5.46675393e-02 -8.65864428e-01
357120 5.01783406e-02 -8.64681529e-01
359080 4.59156202e-02 -8.63973110e-01
361040 4.15524956e-02 -8.63695636e-01
363000 3.68700160e-02 -8.63784968e-01
364960 3.16430318e-02 -8.63903178e-01
366920 2.60427515e-02 -8.63723654e-01
368880 2.02209196e-02 -8.63021749e-01
370840 1.46496239e-02 -8.61857299e-01
372800 9.48173052e-03 -8.60509774e-01
374760 4.68659274e-03 -8.59306175e-01
376720 -7.00089978e-05 -8.58501028e-01
378680 -5.09811038e-03 -8.57881987e-01
380640 -1.05911033e-02 -8.57160730e-01
382600 -1.63981308e-02 -8.55850061e-01
384560 -2.20004280e-02 -8.53856365e-01
386520 -2.69506783e-02 -8.51284002e-01
388480 -3.09389368e-02 -8.48826282e-01
390440 -3.43028718e-02 -8.46935947e-01
392400 -3.75019276e-02 -8.45862998e-01
394360 -4.10886705e-02 -8.45527924e-01
396320 -4.53822060e-02 -8.45447738e-01
398280 -5.02923686e-02 -8.45096132e-01
400240 -5.54315414e-02 -8.44253856e-01
402200 -6.04012816e-02 -8.43077964e-01
404160 -6.51997434e-02 -8.41798244e-01
406120 -6.96219520e-02 -8.40741421e-01
408080 -7.40280883e-02 -8.40036269e-01
410040 -7.89076485e-02 -8.39581292e-01
412000 -8.44681582e-02 -8.39100426e-01
413960 -9.05354305e-02 -8.38047566e-01
415920 -9.70193705e-02 -8.36385171e-01
417880 -1.03788812e-01 -8.33741567e-01
419840 -1.09935955e-01 -8.30214516e-01
421800 -1.15233273e-01 -8.26294760e-01
423760 -1.19731240e-01 -8.22723085e-01
425720 -1.23954591e-01 -8.19568050e-01
427680 -1.28121224e-01 -8.17044690e-01
429640 -1.32967624e-01 -8.15334904e-01
431600 -1.38852141e-01 -8.13657687e-01
433560 -1.45930566e-01 -8.11356133e-01
435520 -1.53879180e-01 -8.08115457e-01
437480 -1.62460218e-01 -8.03601827e-01
439440 -1.71604969e-01 -7.97432418e-01
441400 -1.81040054e-01 -7.89205391e-01
443360 -1.90376738e-01 -7.78370795e-01
445320 -1.98456147e-01 -7.64156798e-01
447280 -2.04106458e-01 -7.46369622e-01
449240 -2.05022528e-01 -7.25487577e-01
451200 -1.99066885e-01 -7.03705467e-01
453160 -1.86248931e-01 -6.83737977e-01
455120 -1.67358899e-01 -6.68859105e-01
457080 -1.44592096e-01 -6.60772763e-01
459040 -1.21383678e-01 -6.60318175e-01
461000 -1.00806209e-01 -6.66497877e-01
462960 -8.37593218e-02 -6.77959405e-01
464920 -7.24181862e-02 -6.92191502e-01
466880 -6.64865297e-02 -7.07056577e-01
468840 -6.39211740e-02 -7.20766005e-01
470800 -6.40051337e-02 -7.33138541e-01
472760 -6.62191796e-02 -7.44060015e-01
474720 -6.97791914e-02 -7.53490039e-01
476680 -7.40804887e-02 -7.61742298e-01
478640 -7.93836030e-02 -7.68975601e-01
480600 -8.49461277e-02 -7.75171339e-01
482560 -9.08416859e-02 -7.80154030e-01
484520 -9.63618675e-02 -7.84297128e-01
486480 -1.01741263e-01 -7.88101182e-01
488440 -1.07376317e-01 -7.91562118e-01
490400 -1.13318622e-01 -7.94481532e-01
492360 -1.19574409e-01 -7.96888548e-01
494320 -1.25850197e-01 -7.98495260e-01
496280 -1.31647832e-01 -7.99460394e-01
498240 -1.37132631e-01 -8.00146594e-01
500200 -1.42570060e-01 -8.00672411e-01
502160 -1.47666924e-01 -8.00897885e-01
504120 -1.52818374e-01 -8.01230941e-01
506080 -1.58389965e-01 -8.01309024e-01
508040 -1.64047942e-01 -8.00640493e-01
510000 -1.69221261e-01 -7.99475690e-01
511960 -1.74106952e-01 -7.97852509e-01
513920 -1.78476336e-01 -7.96031143e-01
515880 -1.82349775e-01 -7.94010401e-01
517840 -1.85779398e-01 -7.92090030e-01
519800 -1.89076070e-01 -7.90016457e-01
521760 -1.92012841e-01 -7.87813932e-01
523720 -1.94368765e-01 -7.85387683e-01
525680 -1.95894567e-01 -7.83130742e-01
527640 -1.96568041e-01 -7.81378701e-01
529600 -1.96681535e-01 -7.80585106e-01
531560 -1.96722062e-01 -7.81082042e-01
533520 -1.97472455e-01 -7.82637710e-01
535480 -1.99270766e-01 -7.84653782e-01
537440 -2.02247459e-01 -7.86581509e-01
539400 -2.05887446e-01 -7.87931874e-01
541360 -2.09914870e-01 -7.88556165e-01
543320 -2.13726887e-01 -7.88466807e-01
545280 -2.17211506e-01 -7.88060119e-01
547240 -2.20314742e-01 -7.87578375e-01
549200 -2.23285194e-01 -7.87245950e-01
551160 -2.26167347e-01 -7.86993852e-01
553120 -2.29054556e-01 -7.86848507e-01
555080 -2.32030875e-01 -7.86763918e-01
557040 -2.35012037e-01 -7.86641705e-01
559000 -2.38044606e-01 -7.86511114e-01
560960 -2.41092898e-01 -7.86390741e-01
562920 -2.44253374e-01 -7.86285826e-01
564880 -2.47525802e-01 -7.86067050e-01
566840 -2.50879455e-01 -7.85773957e-01
568800 -2.54222282e-01 -7.85272728e-01
570760 -2.57457321e-01 -7.84671769e-01
572720 -2.60616733e-01 -7.84001576e-01
574680 -2.63652002e-01 -7.83367291e-01
576640 -2.66714273e-01 -7.82765436e-01
578600 -2.69816985e-01 -7.82242086e-01
580560 -2.73036723e-01 -7.81655079e-01
582520 -2.76370910e-01 -7.80975623e-01
584480 -2.79754701e-01 -7.80142102e-01
586440 -2.83087423e-01 -7.79153423e-01
588400 -2.86337203e-01 -7.78006206e-01
590360 -2.89533815e-01 -7.76751378e-01
592320 -2.92574860e-01 -7.75372331e-01
594280 -2.95481510e-01 -7.73904566e-01
596240 -2.98230105e-01 -7.72373497e-01
598200 -3.00827763e-01 -7.70860309e-01
600160 -3.03264691e-01 -7.69378966e-01
602120 -3.05561606e-01 -7.67960171e-01
604080 -3.07675253e-01 -7.66455713e-01
606040 -3.09705617e-01 -7.65086343e-01
608000 -3.11695206e-01 -7.63808691e-01
609960 -3.13653244e-01 -7.62669527e-01
611920 -3.15693865e-01 -7.61725750e-01
613880 -3.17920722e-01 -7.61061726e-01
615840 -3.20340482e-01 -7.60429252e-01
617800 -3.22891974e-01 -7.59759541e-01
619760 -3.25563245e-01 -7.58984100e-01
621720 -3.28250210e-01 -7.58069670e-01
623680 -3.30917087e-01 -7.57117025e-01
625640 -3.33635635e-01 -7.56128842e-01
627600 -3.36401101e-01 -7.55085767e-01
629560 -3.39272265e-01 -7.53932954e-01
631520 -3.42187030e-01 -7.52617796e-01
633480 -3.45180798e-01 -7.51122473e-01
635440 -3.48079146e-01 -7.49340768e-01
637400 -3.50906656e-01 -7.47361358e-01
639360 -3.53552842e-01 -7.45179421e-01
641320 -3.56030247e-01 -7.42858911e-01
643280 -3.58259901e-01 -7.40310945e-01
645240 -3.60187329e-01 -7.37689940e-01
647200 -3.61775579e-01 -7.34976816e-01
649160 -3.62962442e-01 -7.32241874e-01
651120 -3.63746893e-01 -7.29572544e-01
653080 -3.64072044e-01 -7.27062672e-01
655040 -3.64003050e-01 -7.24910543e-01
657000 -3.63638353e-01 -7.23210046e-01
658960 -3.63103163e-01 -7.22073779e-01
660920 -3.62546167e-01 -7.21458203e-01
662880 -3.62118916e-01 -7.21407662e-01
664840 -3.62002999e-01 -7.21810216e-01
666800 -3.62262551e-01 -7.22544920e-01
668760 -3.62964906e-01 -7.23494660e-01
670720 -3.64142454e-01 -7.24539898e-01
672680 -3.65774199e-01 -7.25544895e-01
674640 -3.67786118e-01 -7.26347951e-01
676600 -3.70047520e-01 -7.26922918e-01
678560 -3.72508246e-01 -7.27253815e-01
680520 -3.75038179e-01 -7.27292946e-01
682480 -3.77620157e-01 -7.27124751e-01
684440 -3.80172913e-01 -7.26682492e-01
686400 -3.82618826e-01 -7.26037826e-01
688360 -3.84882439e-01 -7.25252450e-01
690320 -3.86974703e-01 -7.24468808e-01
692280 -3.88925415e-01 -7.23732254e-01
694240 -3.90803366e-01 -7.23080420e-01
696200 -3.92679434e-01 -7.22491208e-01
698160 -3.94632364e-01 -7.21927126e-01
700120 -3.96633713e-01 -7.21356850e-01
702080 -3.98688443e-01 -7.20720840e-01
704040 -4.00688535e-01 -7.20063291e-01
706000 -4.02703628e-01 -7.19408862e-01
707960 -4.04672557e-01 -7.18729456e-01
709920 -4.06613660e-01 -7.18080881e-01
711880 -4.08537235e-01 -7.17403834e-01
713840 -4.10489188e-01 -7.16791710e-01
715800 -4.12476799e-01 -7.16153621e-01
717760 -4.14501369e-01 -7.15556060e-01
719720 -4.16613100e-01 -7.14927248e-01
721680 -4.18774220e-01 -7.14265956e-01
723640 -4.20989156e-01 -7.13518967e-01
725600 -4.23164349e-01 -7.12678901e-01
727560 -4.25317131e-01 -7.11749558e-01
729520 -4.27407965e-01 -7.10759619e-01
731480 -4.29429673e-01 -7.09746875e-01
733440 -4.31416380e-01 -7.08708242e-01
735400 -4.33357574e-01 -7.07695268e-01
737360 -4.35292674e-01 -7.06708572e-01
739320 -4.37209968e-01 -7.05683193e-01
741280 -4.39154996e-01 -7.04691298e-01
743240 -4.41071962e-01 -7.03638998e-01
745200 -4.42993890e-01 -7.02604154e-01
747160 -4.44908019e-01 -7.01491543e-01
749120 -4.46823784e-01 -7.00383751e-01
751080 -4.48708742e-01 -6.99199996e-01
753040 -4.50550560e-01 -6.98007270e-01
755000 -4.52377494e-01 -6.96761674e-01
756960 -4.54153525e-01 -6.95502707e-01
758920 -4.55869550e-01 -6.94200282e-01
760880 -4.57500428e-01 -6.92859767e-01
762840 -4.59046816e-01 -6.91532810e-01
764800 -4.60496001e-01 -6.90202889e-01
766760 -4.61795143e-01 -6.88910402e-01
768720 -4.63039518e-01 -6.87742442e-01
770680 -4.64232476e-01 -6.86695804e-01
772640 -4.65467771e-01 -6.85756903e-01
774600 -4.66747100e-01 -6.84901789e-01
776560 -4.68133328e-01 -6.84149391e-01
778520 -4.69613182e-01 -6.83360602e-01
780480 -4.71162785e-01 -6.82569029e-01
782440 -4.72786511e-01 -6.81718570e-01
784400 -4.74437967e-01 -6.80795497e-01
786360 -4.76127671e-01 -6.79792434e-01
788320 -4.77777365e-01 -6.78739385e-01
790280 -4.79410809e-01 -6.77628510e-01
792240 -4.80988012e-01 -6.76458456e-01
794200 -4.82491869e-01 -6.75285260e-01
796160 -4.83965790e-01 -6.74068741e-01
798120 -4.85358204e-01 -6.72836165e-01
800080 -4.86602311e-01 -6.71336152e-01
802040 -4.87776971e-01 -6.69883540e-01
804000 -4.88908278e-01 -6.68468005e-01
805960 -4.89965801e-01 -6.67113173e-01
807920 -4.91011934e-01 -6.65797227e-01
809880 -4.92144296e-01 -6.64781779e-01
811840 -4.93260502e-01 -6.63785199e-01
813800 -4.94375134e-01 -6.62819591e-01
815760 -4.95470458e-01 -6.61885321e-01
817720 -4.96565593e-01 -6.61030136e-01
819680 -4.97668982e-01 -6.60233034e-01
821640 -4.98787740e-01 -6.59503672e-01
823600 -4.99957363e-01 -6.58806931e-01
825560 -5.01188497e-01 -6.58151869e-01
827520 -5.02494236e-01 -6.57499061e-01
829480 -5.03867341e-01 -6.56820375e-01
831440 -5.05302536e-01 -6.56095383e-01
833400 -5.06767022e-01 -6.55325483e-01
835360 -5.08250107e-01 -6.54498497e-01
837320 -5.09747059e-01 -6.53597597e-01
839280 -5.11199283e-01 -6.52658841e-01
841240 -5.12639766e-01 -6.51677870e-01
843200 -5.14058229e-01 -6.50666063e-01
845160 -5.15435335e-01 -6.49626794e-01
847120 -5.16761371e-01 -6.48583464e-01
849080 -5.18083716e-01 -6.47561854e-01
851040 -5.19367293e-01 -6.46541037e-01
853000 -5.20627636e-01 -6.45543207e-01
854960 -5.21905071e-01 -6.44603316e-01
856920 -5.23181537e-01 -6.43666933e-01
858880 -5.24444782e-01 -6.42704373e-01
860840 -5.25721123e-01 -6.41767102e-01
862800 -5.26993345e-01 -6.40808426e-01
864760 -5.28251243e-01 -6.39798986e-01
866720 -5.29504796e-01 -6.38776375e-01
868680 -5.30796539e-01 -6.37739015e-01
870640 -5.32037985e-01 -6.36650202e-01
872600 -5.33285968e-01 -6.35551826e-01
874560 -5.34471702e-01 -6.34390463e-01
876520 -5.35592113e-01 -6.33254112e-01
878480 -5.36636808e-01 -6.32119407e-01
880440 -5.37660309e-01 -6.31030953e-01
882400 -5.38648589e-01 -6.29973224e-01
884360 -5.39650415e-01 -6.28962686e-01
886320 -5.40678762e-01 -6.27951829e-01
888280 -5.41706211e-01 -6.26956090e-01
890240 -5.42750402e-01 -6.25944757e-01
892200 -5.43780058e-01 -6.24901827e-01
894160 -5.44781466e-01 -6.23856221e-01
896120 -5.45772063e-01 -6.22802605e-01
898080 -5.46717699e-01 -6.21733100e-01
900040 -5.47606181e-01 -6.20676212e-01
902000 -5.48442104e-01 -6.19644925e-01
903960 -5.49277434e-01 -6.18668207e-01
905920 -5.50081673e-01 -6.17713996e-01
907880 -5.50899840e-01 -6.16811561e-01
909840 -5.51732061e-01 -6.15916176e-01
911800 -5.52592983e-01 -6.15043658e-01
913760 -5.53447096e-01 -6.14152710e-01
915720 -5.54290944e-01 -6.13258853e-01
917680 -5.55108419e-01 -6.12353782e-01
919640 -5.55889602e-01 -6.11447260e-01
921600 -5.56622436e-01 -6.10572012e-01
923560 -5.57298390e-01 -6.09739080e-01
925520 -5.57947023e-01 -6.08979267e-01
927480 -5.58598595e-01 -6.08283948e-01
929440 -5.59263373e-01 -6.07675363e-01
931400 -5.59991924e-01 -6.07129239e-01
933360 -5.60768747e-01 -6.06626646e-01
935320 -5.61587667e-01 -6.06140025e-01
937280 -5.62463018e-01 -6.05681202e-01
939240 -5.63407759e-01 -6.05239308e-01
941200 -5.64386969e-01 -6.04769055e-01
943160 -5.65431155e-01 -6.04301882e-01
945120 -5.66532448e-01 -6.03818637e-01
947080 -5.67676509e-01 -6.03289342e-01
949040 -5.68851301e-01 -6.02725053e-01
951000 -5.70034857e-01 -6.02114145e-01
952960 -5.71225836e-01 -6.01459988e-01
954920 -5.72419874e-01 -6.00759243e-01
956880 -5.73605663e-01 -6.00055631e-01
958840 -5.74800469e-01 -5.99317143e-01
960800 -5.76006351e-01 -5.98565935e-01
962760 -5.77226077e-01 -5.97766939e-01
964720 -5.78446311e-01 -5.96935814e-01
966680 -5.79685629e-01 -5.96060920e-01
968640 -5.80887276e-01 -5.95117604e-01
970600 -5.82074475e-01 -5.94133506e-01
972560 -5.83215843e-01 -5.93099833e-01
974520 -5.84294441e-01 -5.92013218e-01
976480 -5.85296838e-01 -5.90902210e-01
978440 -5.86224004e-01 -5.89781983e-01
980400 -5.87053445e-01 -5.88664294e-01
982360 -5.87801101e-01 -5.87597762e-01
984320 -5.88501342e-01 -5.86600071e-01
986280 -5.89156996e-01 -5.85634293e-01
988240 -5.89806807e-01 -5.84760202e-01
990200 -5.90467056e-01 -5.83937723e-01
992160 -5.91144282e-01 -5.83174456e-01
994120 -5.91843747e-01 -5.82449153e-01
996080 -5.92564813e-01 -5.81777869e-01
998040 -5.92923809e-01 -5.81435110e-01
1000000 -5.93287495e-01 -5.81121035e-01
