! NanoVNA MATLAB Controller & Analyzer Export
! Date: 29-Jul-2026 17:31:33
! Freq Range: 20.000 kHz - 1000.000 kHz (501 pts)
# Hz S RI R 50
20000 9.90391434e-01 -6.53988344e-02
21960 9.91305635e-01 -6.82298885e-02
23920 9.92141525e-01 -7.07905114e-02
25880 9.90928554e-01 -7.63705307e-02
27840 9.90230203e-01 -8.21936765e-02
29800 9.94301323e-01 -8.78784434e-02
31760 9.92131466e-01 -9.37434625e-02
33720 9.91505989e-01 -9.95734879e-02
35680 9.90432734e-01 -1.05137394e-01
37640 9.89601704e-01 -1.10619642e-01
39600 9.88728300e-01 -1.15857620e-01
41560 9.89673349e-01 -1.21431402e-01
43520 9.88306736e-01 -1.26219361e-01
45480 9.87048191e-01 -1.32094762e-01
47440 9.85633936e-01 -1.37620528e-01
49400 9.84757291e-01 -1.43387528e-01
51360 9.83300311e-01 -1.48743519e-01
53320 9.82221437e-01 -1.55134189e-01
55280 9.81134518e-01 -1.60839284e-01
57240 9.80271924e-01 -1.66683266e-01
59200 9.79076148e-01 -1.72409537e-01
61160 9.78173694e-01 -1.78194807e-01
63120 9.77093188e-01 -1.84014337e-01
65080 9.76223167e-01 -1.89634259e-01
67040 9.74930145e-01 -1.95330012e-01
69000 9.73444679e-01 -2.00941609e-01
70960 9.72013032e-01 -2.06664849e-01
72920 9.70692683e-01 -2.12405391e-01
74880 9.69110563e-01 -2.18104953e-01
76840 9.67560741e-01 -2.23852811e-01
78800 9.65940167e-01 -2.29707610e-01
80760 9.64013830e-01 -2.35189340e-01
82720 9.62169612e-01 -2.40679982e-01
84680 9.60399066e-01 -2.46245721e-01
86640 9.58665051e-01 -2.51803710e-01
88600 9.57068233e-01 -2.57297367e-01
90560 9.55525105e-01 -2.63154709e-01
92520 9.53775986e-01 -2.68674465e-01
94480 9.51920458e-01 -2.74385491e-01
96440 9.50079886e-01 -2.80092018e-01
98400 9.48314850e-01 -2.85925069e-01
100360 9.46530861e-01 -2.91770375e-01
102320 9.44749715e-01 -2.97879125e-01
104280 9.43126586e-01 -3.03717974e-01
106240 9.41130753e-01 -3.09571925e-01
108200 9.38982985e-01 -3.15449033e-01
110160 9.37039740e-01 -3.21346026e-01
112120 9.34471697e-01 -3.27209010e-01
114080 9.31812221e-01 -3.33198020e-01
116040 9.29826835e-01 -3.39380282e-01
118000 9.27303291e-01 -3.45424634e-01
119960 9.24403626e-01 -3.51400950e-01
121920 9.21804613e-01 -3.57492707e-01
123880 9.18984037e-01 -3.63450756e-01
125840 9.15587087e-01 -3.69157369e-01
127800 9.12503346e-01 -3.74959709e-01
129760 9.09571289e-01 -3.80866912e-01
131720 9.06697875e-01 -3.86883779e-01
133680 9.03776717e-01 -3.93010232e-01
135640 9.00696389e-01 -3.99231348e-01
137600 8.97698010e-01 -4.05567331e-01
139560 8.94236394e-01 -4.11825193e-01
141520 8.90783704e-01 -4.18127203e-01
143480 8.87181849e-01 -4.24447217e-01
145440 8.83521371e-01 -4.30854592e-01
147400 8.79593162e-01 -4.37245630e-01
149360 8.75779681e-01 -4.43794823e-01
151320 8.71583216e-01 -4.50162701e-01
153280 8.67161231e-01 -4.56548578e-01
155240 8.62752434e-01 -4.62856603e-01
157200 8.58397051e-01 -4.69392022e-01
159160 8.53848635e-01 -4.76084811e-01
161120 8.49061914e-01 -4.83028685e-01
163080 8.43999028e-01 -4.90183260e-01
165040 8.38294137e-01 -4.97280605e-01
167000 8.32168421e-01 -5.04011176e-01
168960 8.26246307e-01 -5.10204987e-01
170920 8.20580784e-01 -5.16425483e-01
172880 8.15114429e-01 -5.22962879e-01
174840 8.09709529e-01 -5.30075477e-01
176800 8.04239806e-01 -5.37943522e-01
178760 7.97737356e-01 -5.46259651e-01
180720 7.90332276e-01 -5.54928857e-01
182680 7.81647505e-01 -5.63686989e-01
184640 7.72713852e-01 -5.72187947e-01
186600 7.62527270e-01 -5.80609551e-01
188560 7.51718555e-01 -5.89120908e-01
190520 7.39560481e-01 -5.97815635e-01
192480 7.26763473e-01 -6.06293800e-01
194440 7.12271762e-01 -6.14605520e-01
196400 6.95986658e-01 -6.22384429e-01
198360 6.79769928e-01 -6.28354131e-01
200320 6.61114368e-01 -6.34316988e-01
202280 6.42912467e-01 -6.35735696e-01
204240 6.22774002e-01 -6.36419155e-01
206200 6.01376105e-01 -6.32531472e-01
208160 5.81788348e-01 -6.27397830e-01
210120 5.65237388e-01 -6.18756729e-01
212080 5.58084680e-01 -6.11401882e-01
214040 5.45527948e-01 -6.01026920e-01
216000 5.38875091e-01 -5.91788729e-01
217960 5.30310591e-01 -5.85075488e-01
219920 5.21970429e-01 -5.77616658e-01
221880 5.05791725e-01 -5.74954606e-01
223840 4.99854202e-01 -5.72668203e-01
225800 4.86698121e-01 -5.77349030e-01
227760 4.71250908e-01 -5.79935391e-01
229720 4.55854845e-01 -5.83009533e-01
231680 4.27740458e-01 -5.76677416e-01
233640 3.93884027e-01 -5.78198721e-01
235600 3.55368485e-01 -5.69286211e-01
237560 3.25364197e-01 -5.35161229e-01
239520 2.81071045e-01 -5.05381896e-01
241480 2.63199220e-01 -4.63556987e-01
243440 2.38139771e-01 -3.97721944e-01
245400 2.38008490e-01 -3.25633080e-01
247360 2.49703503e-01 -2.75606542e-01
249320 2.79046589e-01 -2.17948364e-01
251280 3.12677397e-01 -1.78798773e-01
253240 3.67355698e-01 -1.46953783e-01
255200 4.30131055e-01 -1.34022053e-01
257160 4.88856796e-01 -1.32842508e-01
259120 5.38238461e-01 -1.52321912e-01
261080 5.61194513e-01 -1.72370169e-01
263040 5.75166254e-01 -1.93500189e-01
265000 5.73668244e-01 -2.12838779e-01
266960 5.69987936e-01 -2.22228098e-01
268920 5.64607438e-01 -2.27731425e-01
270880 5.67120845e-01 -2.31134030e-01
272840 5.71286265e-01 -2.29450386e-01
274800 5.80474239e-01 -2.16416016e-01
276760 5.89485173e-01 -2.07937863e-01
278720 6.02363243e-01 -1.95391189e-01
280680 6.21719694e-01 -1.90700487e-01
282640 6.37419890e-01 -1.81726814e-01
284600 6.53477296e-01 -1.83863275e-01
286560 6.68260070e-01 -1.91474364e-01
288520 6.81334578e-01 -2.01996300e-01
290480 6.91209621e-01 -2.06087600e-01
292440 6.95186250e-01 -2.14295361e-01
294400 7.08117438e-01 -2.20984912e-01
296360 7.21348878e-01 -2.25821513e-01
298320 7.40234412e-01 -2.30156353e-01
300280 7.50149042e-01 -2.37957054e-01
302240 7.69896659e-01 -2.48086896e-01
304200 7.84665380e-01 -2.61681675e-01
306160 7.95030422e-01 -2.75161205e-01
308120 8.02273706e-01 -2.92877088e-01
310080 8.09866167e-01 -3.10626164e-01
312040 8.14492818e-01 -3.29784200e-01
314000 8.14231630e-01 -3.44119230e-01
315960 8.14727767e-01 -3.58550552e-01
317920 8.11758355e-01 -3.72522061e-01
319880 8.08984249e-01 -3.81636413e-01
321840 8.06801951e-01 -3.89945783e-01
323800 8.03873924e-01 -4.00692335e-01
325760 8.02052860e-01 -4.07487868e-01
327720 8.04397286e-01 -4.14321586e-01
329680 8.04546376e-01 -4.23325012e-01
331640 8.04638683e-01 -4.31639408e-01
333600 8.06448597e-01 -4.39705530e-01
335560 8.06222247e-01 -4.50027132e-01
337520 8.04456571e-01 -4.59683152e-01
339480 8.04290784e-01 -4.69275927e-01
341440 8.02823578e-01 -4.78759407e-01
343400 7.99925242e-01 -4.87490003e-01
345360 7.97593526e-01 -4.95264531e-01
347320 7.95083695e-01 -5.02793991e-01
349280 7.91954520e-01 -5.09662800e-01
351240 7.89726869e-01 -5.16189235e-01
353200 7.87925884e-01 -5.22723800e-01
355160 7.86325398e-01 -5.29162958e-01
357120 7.84716223e-01 -5.35937132e-01
359080 7.82926135e-01 -5.43144152e-01
361040 7.80954874e-01 -5.50528222e-01
363000 7.78477403e-01 -5.58148216e-01
364960 7.75456632e-01 -5.65811915e-01
366920 7.72252214e-01 -5.73150587e-01
368880 7.68757141e-01 -5.80448817e-01
370840 7.64807578e-01 -5.87528226e-01
372800 7.60740858e-01 -5.94285331e-01
374760 7.56470295e-01 -6.00874399e-01
376720 7.51943398e-01 -6.07296037e-01
378680 7.47203776e-01 -6.13365929e-01
380640 7.42387789e-01 -6.19240375e-01
382600 7.37274230e-01 -6.24910670e-01
384560 7.31894589e-01 -6.30251440e-01
386520 7.26296768e-01 -6.35126675e-01
388480 7.20414755e-01 -6.39587681e-01
390440 7.14371872e-01 -6.43222196e-01
392400 7.08471286e-01 -6.46030624e-01
394360 7.03092293e-01 -6.47969375e-01
396320 6.98711853e-01 -6.49467682e-01
398280 6.95401398e-01 -6.50897301e-01
400240 6.92745040e-01 -6.52845460e-01
402200 6.90384939e-01 -6.55363160e-01
404160 6.87816608e-01 -6.58327180e-01
406120 6.85021315e-01 -6.61345795e-01
408080 6.82402121e-01 -6.63877544e-01
410040 6.80084978e-01 -6.66489652e-01
412000 6.78222169e-01 -6.69229109e-01
413960 6.76904091e-01 -6.72535427e-01
415920 6.75585838e-01 -6.76534744e-01
417880 6.73499488e-01 -6.81322013e-01
419840 6.71056117e-01 -6.86155088e-01
421800 6.67942369e-01 -6.91154966e-01
423760 6.64283737e-01 -6.95840929e-01
425720 6.60299683e-01 -7.00348485e-01
427680 6.56160155e-01 -7.04737352e-01
429640 6.51718579e-01 -7.08840061e-01
431600 6.47139803e-01 -7.12465760e-01
433560 6.42507421e-01 -7.15985624e-01
435520 6.37666625e-01 -7.18984210e-01
437480 6.32920236e-01 -7.21471691e-01
439440 6.28213467e-01 -7.23531035e-01
441400 6.24076270e-01 -7.25203153e-01
443360 6.20430417e-01 -7.26689908e-01
445320 6.17365841e-01 -7.28154559e-01
447280 6.14771393e-01 -7.29990814e-01
449240 6.12437687e-01 -7.32414684e-01
451200 6.09827847e-01 -7.35159104e-01
453160 6.06903215e-01 -7.38020266e-01
455120 6.03726985e-01 -7.41070863e-01
457080 6.00015113e-01 -7.43932302e-01
459040 5.96218977e-01 -7.46136147e-01
461000 5.92772569e-01 -7.48116716e-01
462960 5.89609129e-01 -7.49944644e-01
464920 5.86914493e-01 -7.51561087e-01
466880 5.84712248e-01 -7.53432360e-01
468840 5.82730781e-01 -7.55784267e-01
470800 5.80458708e-01 -7.58664751e-01
472760 5.78165494e-01 -7.61616153e-01
474720 5.75264041e-01 -7.64903272e-01
476680 5.72208761e-01 -7.68204674e-01
478640 5.69004258e-01 -7.71488817e-01
480600 5.65755660e-01 -7.74440702e-01
482560 5.62300791e-01 -7.77591077e-01
484520 5.58967313e-01 -7.80626112e-01
486480 5.55620159e-01 -7.83357971e-01
488440 5.52087752e-01 -7.86104473e-01
490400 5.48434188e-01 -7.88819387e-01
492360 5.44662184e-01 -7.91267234e-01
494320 5.40973763e-01 -7.93503652e-01
496280 5.37220547e-01 -7.95864438e-01
498240 5.33614101e-01 -7.97966043e-01
500200 5.30238734e-01 -8.00084905e-01
502160 5.26991024e-01 -8.02395284e-01
504120 5.23637598e-01 -8.04833294e-01
506080 5.20136113e-01 -8.07248036e-01
508040 5.16555885e-01 -8.09814507e-01
510000 5.12712567e-01 -8.12445917e-01
511960 5.08638266e-01 -8.14824041e-01
513920 5.04602607e-01 -8.17237032e-01
515880 5.00367538e-01 -8.19289066e-01
517840 4.96103992e-01 -8.21067180e-01
519800 4.91823491e-01 -8.22360401e-01
521760 4.87710248e-01 -8.23642007e-01
523720 4.83687828e-01 -8.24545897e-01
525680 4.80252148e-01 -8.25386242e-01
527640 4.77104948e-01 -8.26135875e-01
529600 4.74389872e-01 -8.27138670e-01
531560 4.71902323e-01 -8.28261940e-01
533520 4.69581095e-01 -8.29805823e-01
535480 4.67121097e-01 -8.31562570e-01
537440 4.64390809e-01 -8.33814674e-01
539400 4.61589530e-01 -8.36090390e-01
541360 4.58424093e-01 -8.38535029e-01
543320 4.55058435e-01 -8.40834153e-01
545280 4.51329212e-01 -8.43301663e-01
547240 4.47657037e-01 -8.45281978e-01
549200 4.43743195e-01 -8.47409700e-01
551160 4.39764767e-01 -8.49310974e-01
553120 4.35863252e-01 -8.51092608e-01
555080 4.31910170e-01 -8.52744191e-01
557040 4.28001347e-01 -8.54345838e-01
559000 4.23964052e-01 -8.55714607e-01
560960 4.20289592e-01 -8.56917112e-01
562920 4.16465122e-01 -8.58256220e-01
564880 4.12826810e-01 -8.59434208e-01
566840 4.08899981e-01 -8.60845788e-01
568800 4.05339100e-01 -8.62070432e-01
570760 4.01468193e-01 -8.63509819e-01
572720 3.97534324e-01 -8.64694326e-01
574680 3.93577197e-01 -8.65811624e-01
576640 3.89760595e-01 -8.66579719e-01
578600 3.85869020e-01 -8.67459236e-01
580560 3.81952086e-01 -8.68219164e-01
582520 3.78173461e-01 -8.68979761e-01
584480 3.74276920e-01 -8.69623537e-01
586440 3.70476480e-01 -8.70275629e-01
588400 3.66450129e-01 -8.70787343e-01
590360 3.62764484e-01 -8.71215366e-01
592320 3.58784759e-01 -8.71479045e-01
594280 3.55319282e-01 -8.71778340e-01
596240 3.51948765e-01 -8.71976189e-01
598200 3.48738295e-01 -8.72421043e-01
600160 3.45487214e-01 -8.72604141e-01
602120 3.42362522e-01 -8.73113651e-01
604080 3.38672809e-01 -8.73629887e-01
606040 3.35537995e-01 -8.74306215e-01
608000 3.32060189e-01 -8.74638176e-01
609960 3.28428338e-01 -8.75097285e-01
611920 3.24726625e-01 -8.75180894e-01
613880 3.21336893e-01 -8.75098464e-01
615840 3.17282036e-01 -8.74867239e-01
617800 3.13646680e-01 -8.74328628e-01
619760 3.10048475e-01 -8.73432294e-01
621720 3.07165452e-01 -8.72139336e-01
623680 3.04483153e-01 -8.71198030e-01
625640 3.02325109e-01 -8.69835255e-01
627600 3.00404755e-01 -8.69122914e-01
629560 2.99045684e-01 -8.68597749e-01
631520 2.97493067e-01 -8.68845427e-01
633480 2.96393280e-01 -8.68865314e-01
635440 2.94903675e-01 -8.69826038e-01
637400 2.93213003e-01 -8.70520307e-01
639360 2.91338057e-01 -8.71871040e-01
641320 2.89406832e-01 -8.72883624e-01
643280 2.86938625e-01 -8.74344257e-01
645240 2.84409516e-01 -8.75371288e-01
647200 2.81662907e-01 -8.76567751e-01
649160 2.78494926e-01 -8.77429498e-01
651120 2.75100569e-01 -8.78486894e-01
653080 2.71816492e-01 -8.79177689e-01
655040 2.68157995e-01 -8.80112164e-01
657000 2.64742759e-01 -8.80943384e-01
658960 2.60825293e-01 -8.81033147e-01
660920 2.57083182e-01 -8.81010448e-01
662880 2.53124511e-01 -8.80770054e-01
664840 2.49548338e-01 -8.79595904e-01
666800 2.46104942e-01 -8.78118433e-01
668760 2.43588041e-01 -8.76629161e-01
670720 2.41268473e-01 -8.74893992e-01
672680 2.39690025e-01 -8.73618776e-01
674640 2.38261965e-01 -8.72998234e-01
676600 2.36790170e-01 -8.72313612e-01
678560 2.35250095e-01 -8.72225719e-01
680520 2.33754461e-01 -8.72206580e-01
682480 2.31607143e-01 -8.71803676e-01
684440 2.29345171e-01 -8.71305274e-01
686400 2.26790237e-01 -8.70744249e-01
688360 2.24594808e-01 -8.69802709e-01
690320 2.22438463e-01 -8.68782865e-01
692280 2.20873934e-01 -8.67592531e-01
694240 2.19829194e-01 -8.65942036e-01
696200 2.19775625e-01 -8.64550183e-01
698160 2.20150944e-01 -8.63534106e-01
700120 2.20935730e-01 -8.62655826e-01
702080 2.21970458e-01 -8.62662010e-01
704040 2.23228439e-01 -8.63927474e-01
706000 2.24628782e-01 -8.65815767e-01
707960 2.25212613e-01 -8.68710347e-01
709920 2.25048995e-01 -8.72134441e-01
711880 2.24011435e-01 -8.76037214e-01
713840 2.21699798e-01 -8.79615644e-01
715800 2.18140239e-01 -8.83338856e-01
717760 2.14210993e-01 -8.86484277e-01
719720 2.09584021e-01 -8.89057645e-01
721680 2.04683421e-01 -8.90610459e-01
723640 1.99675253e-01 -8.91735868e-01
725600 1.94542326e-01 -8.91912267e-01
727560 1.89062720e-01 -8.91193937e-01
729520 1.84193571e-01 -8.89865378e-01
731480 1.79250183e-01 -8.87304462e-01
733440 1.75429660e-01 -8.83973259e-01
735400 1.72158884e-01 -8.79396935e-01
737360 1.70092126e-01 -8.74760088e-01
739320 1.69382603e-01 -8.69331894e-01
741280 1.70585268e-01 -8.64482537e-01
743240 1.73395688e-01 -8.59764860e-01
745200 1.77788067e-01 -8.57232207e-01
747160 1.83086935e-01 -8.55792867e-01
749120 1.88612125e-01 -8.56317293e-01
751080 1.94092428e-01 -8.58620602e-01
753040 1.98072600e-01 -8.63072631e-01
755000 2.01047042e-01 -8.68062693e-01
756960 2.02949850e-01 -8.73673536e-01
758920 2.03190614e-01 -8.80022563e-01
760880 2.02062977e-01 -8.86005041e-01
762840 2.00332394e-01 -8.91439766e-01
764800 1.97734189e-01 -8.96664800e-01
766760 1.94380868e-01 -9.01363949e-01
768720 1.91031379e-01 -9.05299379e-01
770680 1.87228291e-01 -9.08865659e-01
772640 1.83387848e-01 -9.12068462e-01
774600 1.79374856e-01 -9.14585489e-01
776560 1.75407632e-01 -9.16690914e-01
778520 1.71498043e-01 -9.18628446e-01
780480 1.67636399e-01 -9.20325096e-01
782440 1.63760603e-01 -9.21569755e-01
784400 1.59981540e-01 -9.22800868e-01
786360 1.56482354e-01 -9.23725492e-01
788320 1.53109907e-01 -9.24571276e-01
790280 1.49986815e-01 -9.25340231e-01
792240 1.46934595e-01 -9.26191170e-01
794200 1.44169742e-01 -9.26886705e-01
796160 1.41176567e-01 -9.27898664e-01
798120 1.38167711e-01 -9.28808585e-01
800080 1.35204408e-01 -9.29583451e-01
802040 1.32157419e-01 -9.30248413e-01
804000 1.28981202e-01 -9.30885544e-01
805960 1.26191217e-01 -9.31434282e-01
807920 1.23308238e-01 -9.31745650e-01
809880 1.20604273e-01 -9.32154377e-01
811840 1.17907082e-01 -9.32614119e-01
813800 1.15529833e-01 -9.33151014e-01
815760 1.13000967e-01 -9.33701709e-01
817720 1.10688992e-01 -9.34354174e-01
819680 1.08121044e-01 -9.35172102e-01
821640 1.05790483e-01 -9.35822157e-01
823600 1.03285959e-01 -9.36575908e-01
825560 1.00865373e-01 -9.37084676e-01
827520 9.85503735e-02 -9.38047389e-01
829480 9.62765281e-02 -9.38800390e-01
831440 9.40927014e-02 -9.40052800e-01
833400 9.17984980e-02 -9.41140878e-01
835360 8.92859991e-02 -9.42555748e-01
837320 8.65880332e-02 -9.43730948e-01
839280 8.38887134e-02 -9.45018967e-01
841240 8.09251532e-02 -9.46147934e-01
843200 7.77968209e-02 -9.47338301e-01
845160 7.47340723e-02 -9.48275030e-01
847120 7.14999800e-02 -9.49250566e-01
849080 6.81391263e-02 -9.50046877e-01
851040 6.47048547e-02 -9.50803082e-01
853000 6.12781784e-02 -9.51332211e-01
854960 5.77754015e-02 -9.51840762e-01
856920 5.42299268e-02 -9.52026435e-01
858880 5.08563408e-02 -9.52011670e-01
860840 4.75598282e-02 -9.51860062e-01
862800 4.45492507e-02 -9.51597235e-01
864760 4.18413321e-02 -9.51318215e-01
866720 3.92476258e-02 -9.51170139e-01
868680 3.66751204e-02 -9.51208559e-01
870640 3.41694191e-02 -9.51296188e-01
872600 3.15120087e-02 -9.51559260e-01
874560 2.85922232e-02 -9.51829792e-01
876520 2.57309832e-02 -9.51931796e-01
878480 2.27886678e-02 -9.52101982e-01
880440 1.97751501e-02 -9.52025823e-01
882400 1.67747902e-02 -9.51927302e-01
884360 1.38761710e-02 -9.51671846e-01
886320 1.09874217e-02 -9.51446083e-01
888280 8.20738350e-03 -9.51231337e-01
890240 5.46711903e-03 -9.50914134e-01
892200 2.79817356e-03 -9.50496684e-01
894160 2.70833650e-04 -9.50229324e-01
896120 -2.22864304e-03 -9.49995141e-01
898080 -4.77533558e-03 -9.49468368e-01
900040 -7.09206742e-03 -9.49190623e-01
902000 -9.41657494e-03 -9.48951024e-01
903960 -1.16714984e-02 -9.48639297e-01
905920 -1.39658552e-02 -9.48467529e-01
907880 -1.62606802e-02 -9.48465199e-01
909840 -1.86550113e-02 -9.48408869e-01
911800 -2.11741218e-02 -9.48356381e-01
913760 -2.41492592e-02 -9.48308350e-01
915720 -2.69940826e-02 -9.47969312e-01
917680 -2.98043479e-02 -9.47505385e-01
919640 -3.26964775e-02 -9.46856401e-01
921600 -3.53645951e-02 -9.45948701e-01
923560 -3.76187390e-02 -9.44935828e-01
925520 -3.98687659e-02 -9.43808340e-01
927480 -4.18197519e-02 -9.42691588e-01
929440 -4.35217199e-02 -9.41660340e-01
931400 -4.50537818e-02 -9.40893131e-01
933360 -4.64685442e-02 -9.40149210e-01
935320 -4.76829557e-02 -9.39796334e-01
937280 -4.90441439e-02 -9.39516508e-01
939240 -5.03491443e-02 -9.39352571e-01
941200 -5.17826069e-02 -9.39340432e-01
943160 -5.33277169e-02 -9.39494925e-01
945120 -5.49871865e-02 -9.39512038e-01
947080 -5.67001025e-02 -9.39713007e-01
949040 -5.85969342e-02 -9.40037318e-01
951000 -6.05109196e-02 -9.40210755e-01
952960 -6.23845773e-02 -9.40247450e-01
954920 -6.42601850e-02 -9.40402847e-01
956880 -6.61403823e-02 -9.40518838e-01
958840 -6.80020770e-02 -9.40577611e-01
960800 -6.98449900e-02 -9.40657717e-01
962760 -7.17749977e-02 -9.40930084e-01
964720 -7.37832104e-02 -9.41183420e-01
966680 -7.58318748e-02 -9.41419198e-01
968640 -7.79385257e-02 -9.41658781e-01
970600 -8.01256140e-02 -9.41966293e-01
972560 -8.23578691e-02 -9.42188275e-01
974520 -8.46832006e-02 -9.42354990e-01
976480 -8.70732381e-02 -9.42435821e-01
978440 -8.95986810e-02 -9.42403999e-01
980400 -9.20819048e-02 -9.42248658e-01
982360 -9.45660717e-02 -9.41972816e-01
984320 -9.69791134e-02 -9.41651235e-01
986280 -9.92939486e-02 -9.41223259e-01
988240 -1.01448201e-01 -9.40752614e-01
990200 -1.03550376e-01 -9.40201208e-01
992160 -1.05561846e-01 -9.39726297e-01
994120 -1.07483714e-01 -9.39262856e-01
996080 -1.09347159e-01 -9.38852740e-01
998040 -1.10254269e-01 -9.38627346e-01
1000000 -1.11158583e-01 -9.38502841e-01
