! NanoVNA MATLAB Controller & Analyzer Export
! Date: 29-Jul-2026 18:48:34
! Freq Range: 20.000 kHz - 1000.000 kHz (501 pts)
# Hz S RI R 50
20000 9.27138541e-01 -3.27789861e-01
21960 9.16865827e-01 -3.49711488e-01
23920 9.08070822e-01 -3.69475789e-01
25880 8.93464155e-01 -3.99374235e-01
27840 8.77356231e-01 -4.28179220e-01
29800 8.51424851e-01 -4.72880451e-01
31760 8.29907258e-01 -4.98177104e-01
33720 8.10886987e-01 -5.24578393e-01
35680 7.89003198e-01 -5.51756647e-01
37640 7.65834441e-01 -5.78120978e-01
39600 7.38255134e-01 -6.03440631e-01
41560 7.08210400e-01 -6.32131939e-01
43520 6.66726826e-01 -6.52159565e-01
45480 6.18009070e-01 -6.63146960e-01
47440 5.62909301e-01 -6.55620070e-01
49400 5.26797826e-01 -6.17675379e-01
51360 5.23443503e-01 -5.81166673e-01
53320 5.37057965e-01 -5.58909641e-01
55280 5.61573315e-01 -5.48271459e-01
57240 5.96848782e-01 -5.54397309e-01
59200 6.25097616e-01 -5.93683667e-01
61160 6.24727005e-01 -6.40517345e-01
63120 6.09145244e-01 -6.78851528e-01
65080 5.87755831e-01 -7.09486007e-01
67040 5.63733505e-01 -7.34581858e-01
69000 5.38894799e-01 -7.54262513e-01
70960 5.14719095e-01 -7.70379308e-01
72920 4.91387997e-01 -7.83931496e-01
74880 4.69119963e-01 -7.95617425e-01
76840 4.48165923e-01 -8.06432758e-01
78800 4.27290206e-01 -8.17656891e-01
80760 4.06336592e-01 -8.28125225e-01
82720 3.85680434e-01 -8.37451807e-01
84680 3.65262797e-01 -8.46981805e-01
86640 3.44371163e-01 -8.56685514e-01
88600 3.22721404e-01 -8.66466129e-01
90560 2.99112031e-01 -8.75996440e-01
92520 2.73954380e-01 -8.85051840e-01
94480 2.46835489e-01 -8.92229715e-01
96440 2.18252192e-01 -8.97890110e-01
98400 1.87778368e-01 -9.01587938e-01
100360 1.55154426e-01 -9.02768433e-01
102320 1.19408133e-01 -9.00465532e-01
104280 8.04712189e-02 -8.93246480e-01
106240 3.82676948e-02 -8.78815741e-01
108200 -7.01814822e-03 -8.52911480e-01
110160 -5.29574183e-02 -8.08857852e-01
112120 -8.88630859e-02 -7.32909167e-01
114080 -6.69763297e-02 -6.28783898e-01
116040 7.12905281e-03 -5.72979535e-01
118000 8.06203297e-02 -5.52952186e-01
119960 1.54754229e-01 -5.52503253e-01
121920 2.38813145e-01 -5.77742400e-01
123880 3.11030019e-01 -6.63615619e-01
125840 3.05988762e-01 -7.62072967e-01
127800 2.70284088e-01 -8.25487736e-01
129760 2.30467792e-01 -8.63162506e-01
131720 1.93989211e-01 -8.86235881e-01
133680 1.61756996e-01 -9.01216548e-01
135640 1.33036502e-01 -9.11648405e-01
137600 1.06594368e-01 -9.18745214e-01
139560 8.27859586e-02 -9.24136701e-01
141520 6.05996234e-02 -9.28213070e-01
143480 3.95588285e-02 -9.31255435e-01
145440 1.94077292e-02 -9.33158795e-01
147400 4.39966213e-04 -9.34134049e-01
149360 -1.76923644e-02 -9.34414108e-01
151320 -3.49182440e-02 -9.34145007e-01
153280 -5.13624947e-02 -9.33451009e-01
155240 -6.71380594e-02 -9.32121351e-01
157200 -8.20353943e-02 -9.30187851e-01
159160 -9.55626699e-02 -9.27968432e-01
161120 -1.07905247e-01 -9.26400211e-01
163080 -1.19910564e-01 -9.25498183e-01
165040 -1.31873480e-01 -9.25309581e-01
167000 -1.44336712e-01 -9.25513132e-01
168960 -1.57530120e-01 -9.25599839e-01
170920 -1.71096158e-01 -9.24903148e-01
172880 -1.84565242e-01 -9.23445999e-01
174840 -1.97739755e-01 -9.21420499e-01
176800 -2.10543264e-01 -9.19212251e-01
178760 -2.22978136e-01 -9.16663050e-01
180720 -2.35238619e-01 -9.13880899e-01
182680 -2.47228880e-01 -9.10790865e-01
184640 -2.58971238e-01 -9.07468673e-01
186600 -2.70431325e-01 -9.03657943e-01
188560 -2.81662294e-01 -8.99619630e-01
190520 -2.92516136e-01 -8.95180053e-01
192480 -3.02757303e-01 -8.90376237e-01
194440 -3.12240603e-01 -8.85387500e-01
196400 -3.20931578e-01 -8.80551767e-01
198360 -3.28836241e-01 -8.76147253e-01
200320 -3.36413697e-01 -8.72479993e-01
202280 -3.44113373e-01 -8.69398118e-01
204240 -3.52125087e-01 -8.66726968e-01
206200 -3.60618698e-01 -8.64089556e-01
208160 -3.69700150e-01 -8.61270225e-01
210120 -3.78878765e-01 -8.57846807e-01
212080 -3.87900387e-01 -8.53205092e-01
214040 -3.96623976e-01 -8.48727162e-01
216000 -4.05183827e-01 -8.44059858e-01
217960 -4.13570709e-01 -8.38997971e-01
219920 -4.21666416e-01 -8.33683733e-01
221880 -4.29461425e-01 -8.28821719e-01
223840 -4.36455049e-01 -8.23092497e-01
225800 -4.42749610e-01 -8.17574977e-01
227760 -4.48473659e-01 -8.12704510e-01
229720 -4.54288012e-01 -8.08421269e-01
231680 -4.60370491e-01 -8.04545610e-01
233640 -4.67239675e-01 -8.00835953e-01
235600 -4.74444256e-01 -7.96589830e-01
237560 -4.81623844e-01 -7.91790324e-01
239520 -4.88594629e-01 -7.86664518e-01
241480 -4.95486061e-01 -7.81236111e-01
243440 -5.02144552e-01 -7.75577995e-01
245400 -5.08845798e-01 -7.70136233e-01
247360 -5.16276728e-01 -7.64343326e-01
249320 -5.24332070e-01 -7.57314466e-01
251280 -5.32564058e-01 -7.48793399e-01
253240 -5.40716454e-01 -7.38379282e-01
255200 -5.48308686e-01 -7.25239697e-01
257160 -5.54307111e-01 -7.08626323e-01
259120 -5.56690222e-01 -6.87690028e-01
261080 -5.51007550e-01 -6.62441299e-01
263040 -5.31660858e-01 -6.38577386e-01
265000 -5.01127665e-01 -6.26820040e-01
266960 -4.68994814e-01 -6.30564199e-01
268920 -4.41739136e-01 -6.47380308e-01
270880 -4.23648431e-01 -6.74797135e-01
272840 -4.20314300e-01 -7.08236246e-01
274800 -4.33051089e-01 -7.37193950e-01
276760 -4.53666164e-01 -7.54898482e-01
278720 -4.74382313e-01 -7.62806114e-01
280680 -4.92252138e-01 -7.65028375e-01
282640 -5.07502112e-01 -7.64573039e-01
284600 -5.20588238e-01 -7.62614264e-01
286560 -5.32086424e-01 -7.59774672e-01
288520 -5.42345747e-01 -7.56371694e-01
290480 -5.51653713e-01 -7.52586845e-01
292440 -5.60075703e-01 -7.48385707e-01
294400 -5.67630501e-01 -7.43954934e-01
296360 -5.74422361e-01 -7.39469979e-01
298320 -5.80390054e-01 -7.35040977e-01
300280 -5.85712725e-01 -7.30827251e-01
302240 -5.90615478e-01 -7.26931188e-01
304200 -5.95135838e-01 -7.23344871e-01
306160 -5.99428564e-01 -7.20114642e-01
308120 -6.03731189e-01 -7.17099695e-01
310080 -6.08268393e-01 -7.14354263e-01
312040 -6.12888093e-01 -7.11599539e-01
314000 -6.17621591e-01 -7.08804874e-01
315960 -6.22424830e-01 -7.05870871e-01
317920 -6.27252074e-01 -7.02827603e-01
319880 -6.31699200e-01 -6.99624921e-01
321840 -6.36095109e-01 -6.96298048e-01
323800 -6.40381402e-01 -6.92937036e-01
325760 -6.44557821e-01 -6.89507095e-01
327720 -6.48642769e-01 -6.86034511e-01
329680 -6.52759658e-01 -6.82362650e-01
331640 -6.56597383e-01 -6.78635742e-01
333600 -6.60208239e-01 -6.74824536e-01
335560 -6.63471911e-01 -6.70926881e-01
337520 -6.66358589e-01 -6.67101577e-01
339480 -6.68884798e-01 -6.63463974e-01
341440 -6.71113764e-01 -6.60180753e-01
343400 -6.73180415e-01 -6.57319812e-01
345360 -6.75438535e-01 -6.54932305e-01
347320 -6.77987549e-01 -6.52809162e-01
349280 -6.80867201e-01 -6.50798449e-01
351240 -6.84138481e-01 -6.48719412e-01
353200 -6.87659172e-01 -6.46361559e-01
355160 -6.91184236e-01 -6.43682948e-01
357120 -6.94668715e-01 -6.40739998e-01
359080 -6.98032064e-01 -6.37597315e-01
361040 -7.01192472e-01 -6.34276229e-01
363000 -7.04135455e-01 -6.30859412e-01
364960 -7.06813195e-01 -6.27361496e-01
366920 -7.09135700e-01 -6.23938393e-01
368880 -7.11154958e-01 -6.20710751e-01
370840 -7.12990110e-01 -6.17791209e-01
372800 -7.14902475e-01 -6.15254710e-01
374760 -7.17010372e-01 -6.12949694e-01
376720 -7.19410206e-01 -6.10704424e-01
378680 -7.22075332e-01 -6.08348527e-01
380640 -7.24880943e-01 -6.05785451e-01
382600 -7.27711530e-01 -6.02940836e-01
384560 -7.30465178e-01 -5.99917041e-01
386520 -7.33129033e-01 -5.96716136e-01
388480 -7.35662336e-01 -5.93365461e-01
390440 -7.38106291e-01 -5.89903180e-01
392400 -7.40336693e-01 -5.86226792e-01
394360 -7.42508096e-01 -5.82451510e-01
396320 -7.44497889e-01 -5.78426059e-01
398280 -7.46192431e-01 -5.74083818e-01
400240 -7.47417140e-01 -5.69328692e-01
402200 -7.47827723e-01 -5.64335608e-01
404160 -7.46949187e-01 -5.59245159e-01
406120 -7.44556476e-01 -5.55051292e-01
408080 -7.41112198e-01 -5.52563317e-01
410040 -7.37611701e-01 -5.52030862e-01
412000 -7.34966421e-01 -5.53234835e-01
413960 -7.33698737e-01 -5.55792381e-01
415920 -7.34432986e-01 -5.58902634e-01
417880 -7.37074426e-01 -5.61390709e-01
419840 -7.40874210e-01 -5.62897196e-01
421800 -7.45242730e-01 -5.63294085e-01
423760 -7.49800218e-01 -5.62637705e-01
425720 -7.54247854e-01 -5.60892984e-01
427680 -7.58253064e-01 -5.58489798e-01
429640 -7.61754901e-01 -5.55607351e-01
431600 -7.64717338e-01 -5.52463631e-01
433560 -7.67288253e-01 -5.49176654e-01
435520 -7.69396997e-01 -5.45764512e-01
437480 -7.71063045e-01 -5.42283191e-01
439440 -7.72098626e-01 -5.38777801e-01
441400 -7.72462205e-01 -5.35592975e-01
443360 -7.72218046e-01 -5.33026795e-01
445320 -7.71786720e-01 -5.31374095e-01
447280 -7.71624282e-01 -5.30588144e-01
449240 -7.72074220e-01 -5.30446883e-01
451200 -7.73257687e-01 -5.30560958e-01
453160 -7.75247260e-01 -5.30593936e-01
455120 -7.77741906e-01 -5.30180850e-01
457080 -7.80458054e-01 -5.29254039e-01
459040 -7.83156891e-01 -5.27911157e-01
461000 -7.85811645e-01 -5.26261192e-01
462960 -7.88327195e-01 -5.24346018e-01
464920 -7.90703013e-01 -5.22282874e-01
466880 -7.92853365e-01 -5.20132105e-01
468840 -7.94910113e-01 -5.17975634e-01
470800 -7.96858123e-01 -5.15779936e-01
472760 -7.98748681e-01 -5.13578884e-01
474720 -8.00594537e-01 -5.11244559e-01
476680 -8.02356685e-01 -5.08899302e-01
478640 -8.04003113e-01 -5.06466267e-01
480600 -8.05518987e-01 -5.04001835e-01
482560 -8.06862328e-01 -5.01467727e-01
484520 -8.07878542e-01 -4.98995109e-01
486480 -8.08652075e-01 -4.96692141e-01
488440 -8.09257485e-01 -4.94724820e-01
490400 -8.09910005e-01 -4.93119280e-01
492360 -8.10735271e-01 -4.91750882e-01
494320 -8.11867005e-01 -4.90569318e-01
496280 -8.13324994e-01 -4.89308026e-01
498240 -8.14948666e-01 -4.87846670e-01
500200 -8.16657793e-01 -4.86123756e-01
502160 -8.18244506e-01 -4.84261409e-01
504120 -8.19758013e-01 -4.82332249e-01
506080 -8.21116032e-01 -4.80354183e-01
508040 -8.22422280e-01 -4.78404624e-01
510000 -8.23634367e-01 -4.76446761e-01
511960 -8.24842976e-01 -4.74565659e-01
513920 -8.26002396e-01 -4.72635090e-01
515880 -8.27135642e-01 -4.70738067e-01
517840 -8.28276312e-01 -4.68834867e-01
519800 -8.29346699e-01 -4.66967247e-01
521760 -8.30424210e-01 -4.65110660e-01
523720 -8.31498745e-01 -4.63275679e-01
525680 -8.32598995e-01 -4.61467578e-01
527640 -8.33694633e-01 -4.59610629e-01
529600 -8.34803219e-01 -4.57743748e-01
531560 -8.35922460e-01 -4.55795728e-01
533520 -8.36978612e-01 -4.53810068e-01
535480 -8.38044058e-01 -4.51763759e-01
537440 -8.38994872e-01 -4.49660394e-01
539400 -8.39875578e-01 -4.47514579e-01
541360 -8.40602538e-01 -4.45293991e-01
543320 -8.41167288e-01 -4.43108083e-01
545280 -8.41537817e-01 -4.40926136e-01
547240 -8.41719833e-01 -4.38855187e-01
549200 -8.41771959e-01 -4.36919967e-01
551160 -8.41644822e-01 -4.35204222e-01
553120 -8.41469460e-01 -4.33758878e-01
555080 -8.41302674e-01 -4.32641460e-01
557040 -8.41356946e-01 -4.31869614e-01
559000 -8.41682944e-01 -4.31256181e-01
560960 -8.42365789e-01 -4.30732672e-01
562920 -8.43408958e-01 -4.30075345e-01
564880 -8.44668531e-01 -4.29205308e-01
566840 -8.46067192e-01 -4.28027663e-01
568800 -8.47412429e-01 -4.26578503e-01
570760 -8.48684116e-01 -4.24905922e-01
572720 -8.49780262e-01 -4.23035140e-01
574680 -8.50713383e-01 -4.21040657e-01
576640 -8.51368641e-01 -4.18880614e-01
578600 -8.51715622e-01 -4.16722523e-01
580560 -8.51692207e-01 -4.14598285e-01
582520 -8.51239248e-01 -4.12730595e-01
584480 -8.50534885e-01 -4.11329906e-01
586440 -8.49710253e-01 -4.10522189e-01
588400 -8.49122699e-01 -4.10310319e-01
590360 -8.48978731e-01 -4.10541943e-01
592320 -8.49470683e-01 -4.10994924e-01
594280 -8.50531754e-01 -4.11286813e-01
596240 -8.52023545e-01 -4.11297667e-01
598200 -8.53760915e-01 -4.10892697e-01
600160 -8.55511824e-01 -4.10113199e-01
602120 -8.57206698e-01 -4.09054285e-01
604080 -8.58456273e-01 -4.07639803e-01
606040 -8.59607848e-01 -4.06112869e-01
608000 -8.60563229e-01 -4.04447619e-01
609960 -8.61469584e-01 -4.02809755e-01
611920 -8.62282482e-01 -4.01082762e-01
613880 -8.63282993e-01 -3.99512151e-01
615840 -8.64219686e-01 -3.97915040e-01
617800 -8.65088016e-01 -3.96380516e-01
619760 -8.65878720e-01 -3.94826437e-01
621720 -8.66582320e-01 -3.93310403e-01
623680 -8.67272082e-01 -3.91847548e-01
625640 -8.67921735e-01 -3.90378141e-01
627600 -8.68536308e-01 -3.88973396e-01
629560 -8.69116639e-01 -3.87591354e-01
631520 -8.69685826e-01 -3.86289738e-01
633480 -8.70282555e-01 -3.85008473e-01
635440 -8.70869304e-01 -3.83798434e-01
637400 -8.71543055e-01 -3.82587774e-01
639360 -8.72218980e-01 -3.81347307e-01
641320 -8.72925966e-01 -3.80092352e-01
643280 -8.73605069e-01 -3.78775117e-01
645240 -8.74277153e-01 -3.77460357e-01
647200 -8.74941393e-01 -3.76109976e-01
649160 -8.75532893e-01 -3.74764426e-01
651120 -8.76111310e-01 -3.73412017e-01
653080 -8.76616655e-01 -3.72091575e-01
655040 -8.77113483e-01 -3.70811256e-01
657000 -8.77614201e-01 -3.69587826e-01
658960 -8.78179773e-01 -3.68415625e-01
660920 -8.78745563e-01 -3.67256526e-01
662880 -8.79357486e-01 -3.66075476e-01
664840 -8.79967647e-01 -3.64861805e-01
666800 -8.80534498e-01 -3.63581367e-01
668760 -8.81044438e-01 -3.62283361e-01
670720 -8.81533408e-01 -3.60951648e-01
672680 -8.81952267e-01 -3.59665605e-01
674640 -8.82382700e-01 -3.58410576e-01
676600 -8.82768194e-01 -3.57170866e-01
678560 -8.83165372e-01 -3.55958072e-01
680520 -8.83525230e-01 -3.54752711e-01
682480 -8.83882090e-01 -3.53586836e-01
684440 -8.84200565e-01 -3.52376736e-01
686400 -8.84453174e-01 -3.51200506e-01
688360 -8.84663392e-01 -3.50046543e-01
690320 -8.84804829e-01 -3.48958803e-01
692280 -8.84944984e-01 -3.48003408e-01
694240 -8.85092942e-01 -3.47174287e-01
696200 -8.85346494e-01 -3.46495025e-01
698160 -8.85757759e-01 -3.45877588e-01
700120 -8.86354012e-01 -3.45265362e-01
702080 -8.87134952e-01 -3.44513776e-01
704040 -8.88007117e-01 -3.43611566e-01
706000 -8.88905957e-01 -3.42514495e-01
707960 -8.89725999e-01 -3.41205689e-01
709920 -8.90400367e-01 -3.39795135e-01
711880 -8.90892661e-01 -3.38270830e-01
713840 -8.91166723e-01 -3.36756515e-01
715800 -8.91276602e-01 -3.35277530e-01
717760 -8.91213790e-01 -3.33950062e-01
719720 -8.91079411e-01 -3.32781546e-01
721680 -8.90897207e-01 -3.31800424e-01
723640 -8.90750253e-01 -3.31003400e-01
725600 -8.90650114e-01 -3.30360067e-01
727560 -8.90655744e-01 -3.29868584e-01
729520 -8.90800917e-01 -3.29459343e-01
731480 -8.91080281e-01 -3.29108613e-01
733440 -8.91534456e-01 -3.28762569e-01
735400 -8.92143606e-01 -3.28383454e-01
737360 -8.92897289e-01 -3.27900779e-01
739320 -8.93741768e-01 -3.27282516e-01
741280 -8.94625925e-01 -3.26529344e-01
743240 -8.95496379e-01 -3.25632609e-01
745200 -8.96316236e-01 -3.24644405e-01
747160 -8.97077112e-01 -3.23566840e-01
749120 -8.97749731e-01 -3.22456623e-01
751080 -8.98368920e-01 -3.21338421e-01
753040 -8.98942455e-01 -3.20209461e-01
755000 -8.99478704e-01 -3.19069923e-01
756960 -8.99982472e-01 -3.17926827e-01
758920 -9.00448529e-01 -3.16757036e-01
760880 -9.00861072e-01 -3.15576731e-01
762840 -9.01209659e-01 -3.14402957e-01
764800 -9.01502527e-01 -3.13242887e-01
766760 -9.01719162e-01 -3.12115868e-01
768720 -9.01889977e-01 -3.11032600e-01
770680 -9.02029266e-01 -3.10012792e-01
772640 -9.02130965e-01 -3.09059666e-01
774600 -9.02214332e-01 -3.08181019e-01
776560 -9.02334484e-01 -3.07424542e-01
778520 -9.02506968e-01 -3.06760321e-01
780480 -9.02777296e-01 -3.06172398e-01
782440 -9.03189948e-01 -3.05574506e-01
784400 -9.03718061e-01 -3.04929523e-01
786360 -9.04323566e-01 -3.04157658e-01
788320 -9.04955859e-01 -3.03282699e-01
790280 -9.05552643e-01 -3.02280772e-01
792240 -9.06060814e-01 -3.01185118e-01
794200 -9.06466187e-01 -3.00062927e-01
796160 -9.06763140e-01 -2.98912302e-01
798120 -9.06936685e-01 -2.97804982e-01
800080 -9.06664348e-01 -2.96596889e-01
802040 -9.06367124e-01 -2.95519418e-01
804000 -9.06020547e-01 -2.94542652e-01
805960 -9.05705941e-01 -2.93723210e-01
807920 -9.05453271e-01 -2.92968358e-01
809880 -9.05682368e-01 -2.92463957e-01
811840 -9.05961676e-01 -2.91932935e-01
813800 -9.06409740e-01 -2.91406544e-01
815760 -9.06939045e-01 -2.90785875e-01
817720 -9.07524156e-01 -2.90095904e-01
819680 -9.08111716e-01 -2.89280942e-01
821640 -9.08684845e-01 -2.88418822e-01
823600 -9.09208321e-01 -2.87471138e-01
825560 -9.09651163e-01 -2.86481539e-01
827520 -9.10056642e-01 -2.85495110e-01
829480 -9.10406136e-01 -2.84487106e-01
831440 -9.10720163e-01 -2.83507787e-01
833400 -9.11005938e-01 -2.82531903e-01
835360 -9.11259549e-01 -2.81583772e-01
837320 -9.11520885e-01 -2.80614407e-01
839280 -9.11712645e-01 -2.79677840e-01
841240 -9.11929708e-01 -2.78739643e-01
843200 -9.12104865e-01 -2.77786834e-01
845160 -9.12267316e-01 -2.76866040e-01
847120 -9.12390878e-01 -2.75952289e-01
849080 -9.12517953e-01 -2.75070128e-01
851040 -9.12602569e-01 -2.74190741e-01
853000 -9.12667991e-01 -2.73371906e-01
854960 -9.12776963e-01 -2.72592747e-01
856920 -9.12878986e-01 -2.71847930e-01
858880 -9.12964364e-01 -2.71140614e-01
860840 -9.13085357e-01 -2.70476901e-01
862800 -9.13184529e-01 -2.69842565e-01
864760 -9.13273482e-01 -2.69228356e-01
866720 -9.13354972e-01 -2.68640778e-01
868680 -9.13505909e-01 -2.68093672e-01
870640 -9.13661197e-01 -2.67548682e-01
872600 -9.13885384e-01 -2.67033538e-01
874560 -9.14145093e-01 -2.66488834e-01
876520 -9.14440744e-01 -2.65963616e-01
878480 -9.14771716e-01 -2.65384433e-01
880440 -9.15093717e-01 -2.64797104e-01
882400 -9.15443863e-01 -2.64186263e-01
884360 -9.15761837e-01 -2.63532896e-01
886320 -9.16104782e-01 -2.62886606e-01
888280 -9.16440949e-01 -2.62216632e-01
890240 -9.16785361e-01 -2.61560274e-01
892200 -9.17138117e-01 -2.60873443e-01
894160 -9.17486975e-01 -2.60201816e-01
896120 -9.17867236e-01 -2.59509802e-01
898080 -9.18186790e-01 -2.58777001e-01
900040 -9.18513637e-01 -2.58052153e-01
902000 -9.18808238e-01 -2.57290975e-01
903960 -9.19093104e-01 -2.56549499e-01
905920 -9.19344761e-01 -2.55769803e-01
907880 -9.19589089e-01 -2.55047862e-01
909840 -9.19825771e-01 -2.54315427e-01
911800 -9.20023032e-01 -2.53602013e-01
913760 -9.20259778e-01 -2.52921359e-01
915720 -9.20480987e-01 -2.52249376e-01
917680 -9.20738255e-01 -2.51602991e-01
919640 -9.21017393e-01 -2.50926435e-01
921600 -9.21337519e-01 -2.50265114e-01
923560 -9.21659374e-01 -2.49559722e-01
925520 -9.21944670e-01 -2.48849035e-01
927480 -9.22263055e-01 -2.48101226e-01
929440 -9.22547745e-01 -2.47337155e-01
931400 -9.22828350e-01 -2.46581194e-01
933360 -9.23084323e-01 -2.45790306e-01
935320 -9.23326726e-01 -2.45017392e-01
937280 -9.23546841e-01 -2.44215388e-01
939240 -9.23733823e-01 -2.43442135e-01
941200 -9.23909437e-01 -2.42633566e-01
943160 -9.24030943e-01 -2.41857737e-01
945120 -9.24152256e-01 -2.41094114e-01
947080 -9.24228424e-01 -2.40348921e-01
949040 -9.24295539e-01 -2.39646000e-01
951000 -9.24342651e-01 -2.38969281e-01
952960 -9.24390793e-01 -2.38340704e-01
954920 -9.24469821e-01 -2.37724536e-01
956880 -9.24544528e-01 -2.37144998e-01
958840 -9.24672261e-01 -2.36580853e-01
960800 -9.24802220e-01 -2.36018785e-01
962760 -9.24957779e-01 -2.35472829e-01
964720 -9.25127971e-01 -2.34904394e-01
966680 -9.25309302e-01 -2.34365717e-01
968640 -9.25486924e-01 -2.33787694e-01
970600 -9.25659616e-01 -2.33254872e-01
972560 -9.25882224e-01 -2.32705403e-01
974520 -9.26073383e-01 -2.32158306e-01
976480 -9.26324623e-01 -2.31612625e-01
978440 -9.26570869e-01 -2.31047503e-01
980400 -9.26842885e-01 -2.30486215e-01
982360 -9.27103679e-01 -2.29878914e-01
984320 -9.27379725e-01 -2.29285341e-01
986280 -9.27647056e-01 -2.28637115e-01
988240 -9.27901423e-01 -2.28003333e-01
990200 -9.28159301e-01 -2.27322764e-01
992160 -9.28392632e-01 -2.26631026e-01
994120 -9.28614644e-01 -2.25943640e-01
996080 -9.28771258e-01 -2.25240687e-01
998040 -9.28869111e-01 -2.24888990e-01
1000000 -9.28945623e-01 -2.24526526e-01
