! NanoVNA MATLAB Controller & Analyzer Export
! Date: 29-Jul-2026 17:37:29
! Freq Range: 20.000 kHz - 1000.000 kHz (501 pts)
# Hz S RI R 50
20000 9.55073680e-01 -2.26660451e-01
21960 9.55334267e-01 -2.36296873e-01
23920 9.53891891e-01 -2.44939544e-01
25880 9.47405406e-01 -2.64301996e-01
27840 9.42121799e-01 -2.83043717e-01
29800 9.40219598e-01 -2.99382505e-01
31760 9.28211815e-01 -3.15086358e-01
33720 9.20571342e-01 -3.33090603e-01
35680 9.11720729e-01 -3.50945030e-01
37640 9.01642028e-01 -3.68167833e-01
39600 8.92853387e-01 -3.85641573e-01
41560 8.86896922e-01 -4.05677605e-01
43520 8.75327688e-01 -4.22673484e-01
45480 8.64394138e-01 -4.40583568e-01
47440 8.52927657e-01 -4.57595947e-01
49400 8.41471885e-01 -4.74203693e-01
51360 8.29237640e-01 -4.90439002e-01
53320 8.17542816e-01 -5.07848004e-01
55280 8.04544664e-01 -5.23671558e-01
57240 7.90414552e-01 -5.39766291e-01
59200 7.76010401e-01 -5.56154298e-01
61160 7.60775338e-01 -5.72150729e-01
63120 7.44546827e-01 -5.87540508e-01
65080 7.28058990e-01 -6.03522265e-01
67040 7.10695233e-01 -6.19723304e-01
69000 6.91142514e-01 -6.35543775e-01
70960 6.69887422e-01 -6.51523111e-01
72920 6.45805603e-01 -6.67419357e-01
74880 6.18397501e-01 -6.83009733e-01
76840 5.85521990e-01 -6.96694461e-01
78800 5.46074455e-01 -7.05359092e-01
80760 5.02033088e-01 -7.00397937e-01
82720 4.69945881e-01 -6.83964199e-01
84680 4.47658138e-01 -6.71675234e-01
86640 4.24995699e-01 -6.65185784e-01
88600 3.96815496e-01 -6.62220160e-01
90560 3.55201248e-01 -6.61074053e-01
92520 2.84319450e-01 -6.38759924e-01
94480 2.18453367e-01 -5.51590074e-01
96440 2.33483283e-01 -4.43134179e-01
98400 2.80682969e-01 -3.71888175e-01
100360 3.37333117e-01 -3.19807124e-01
102320 4.10723719e-01 -2.78952914e-01
104280 5.15478743e-01 -2.70138972e-01
106240 5.96599316e-01 -3.38688876e-01
108200 6.12890628e-01 -4.10201381e-01
110160 6.03368010e-01 -4.51856568e-01
112120 5.97071149e-01 -4.72149030e-01
114080 6.00783243e-01 -4.86069228e-01
116040 6.11629513e-01 -5.01007829e-01
118000 6.25743674e-01 -5.23198072e-01
119960 6.37284957e-01 -5.55997841e-01
121920 6.36332075e-01 -5.94233428e-01
123880 6.24268838e-01 -6.28459051e-01
125840 6.06406692e-01 -6.55891178e-01
127800 5.87691882e-01 -6.77407024e-01
129760 5.68843015e-01 -6.93997835e-01
131720 5.51141153e-01 -7.07418633e-01
133680 5.34601220e-01 -7.18639788e-01
135640 5.19120325e-01 -7.28135204e-01
137600 5.04757006e-01 -7.36658472e-01
139560 4.91492962e-01 -7.45313308e-01
141520 4.78174130e-01 -7.54130065e-01
143480 4.64258409e-01 -7.62769760e-01
145440 4.49129218e-01 -7.71049199e-01
147400 4.31955381e-01 -7.77584718e-01
149360 4.13462528e-01 -7.79720418e-01
151320 3.98188385e-01 -7.75954525e-01
153280 3.90120368e-01 -7.70768976e-01
155240 3.87244174e-01 -7.68385687e-01
157200 3.87209781e-01 -7.70038647e-01
159160 3.88240682e-01 -7.76920821e-01
161120 3.86503999e-01 -7.89596971e-01
163080 3.78371993e-01 -8.03868225e-01
165040 3.66326918e-01 -8.15687328e-01
167000 3.53093195e-01 -8.24937803e-01
168960 3.39738757e-01 -8.32357381e-01
170920 3.26514218e-01 -8.38639891e-01
172880 3.13429966e-01 -8.44101162e-01
174840 3.00365689e-01 -8.48980783e-01
176800 2.87360873e-01 -8.53083468e-01
178760 2.74559511e-01 -8.56450901e-01
180720 2.61978992e-01 -8.59328857e-01
182680 2.49684754e-01 -8.61762300e-01
184640 2.37597088e-01 -8.63828854e-01
186600 2.25583440e-01 -8.65644706e-01
188560 2.13639679e-01 -8.67246520e-01
190520 2.01720015e-01 -8.68407077e-01
192480 1.89749358e-01 -8.69145625e-01
194440 1.77787607e-01 -8.69247341e-01
196400 1.66070000e-01 -8.68517505e-01
198360 1.55045450e-01 -8.66924756e-01
200320 1.45211571e-01 -8.65324109e-01
202280 1.35972490e-01 -8.64091435e-01
204240 1.26683288e-01 -8.63454290e-01
206200 1.16640320e-01 -8.63133337e-01
208160 1.05183554e-01 -8.62473599e-01
210120 9.21706431e-02 -8.59524566e-01
212080 7.88974380e-02 -8.53385505e-01
214040 6.82130845e-02 -8.42748245e-01
216000 6.31108460e-02 -8.28851396e-01
217960 6.60501880e-02 -8.15364926e-01
219920 7.56220915e-02 -8.07777168e-01
221880 8.78305078e-02 -8.07771593e-01
223840 9.84316190e-02 -8.15636548e-01
225800 1.04307198e-01 -8.30087854e-01
227760 1.02346812e-01 -8.47741122e-01
229720 9.29267271e-02 -8.63134639e-01
231680 7.98115988e-02 -8.73989360e-01
233640 6.60296343e-02 -8.81071173e-01
235600 5.25789404e-02 -8.85543422e-01
237560 3.98832342e-02 -8.88424425e-01
239520 2.77865149e-02 -8.90320236e-01
241480 1.62121544e-02 -8.91470423e-01
243440 5.02838328e-03 -8.92054560e-01
245400 -5.73559875e-03 -8.92082975e-01
247360 -1.61007842e-02 -8.91646100e-01
249320 -2.60063028e-02 -8.90801066e-01
251280 -3.54596358e-02 -8.89811772e-01
253240 -4.45169817e-02 -8.88717128e-01
255200 -5.33094256e-02 -8.87606561e-01
257160 -6.19518288e-02 -8.86425347e-01
259120 -7.03549963e-02 -8.85149190e-01
261080 -7.84856870e-02 -8.83836242e-01
263040 -8.63994597e-02 -8.82586367e-01
265000 -9.42510022e-02 -8.81479298e-01
266960 -1.02166388e-01 -8.80417431e-01
268920 -1.10095088e-01 -8.79402334e-01
270880 -1.18206372e-01 -8.78382817e-01
272840 -1.26498078e-01 -8.77147212e-01
274800 -1.34925041e-01 -8.75584934e-01
276760 -1.43362438e-01 -8.73756333e-01
278720 -1.51901528e-01 -8.71620894e-01
280680 -1.60474786e-01 -8.68930743e-01
282640 -1.68926842e-01 -8.65667406e-01
284600 -1.76911124e-01 -8.61743324e-01
286560 -1.84060228e-01 -8.57246475e-01
288520 -1.90014193e-01 -8.52699738e-01
290480 -1.94976126e-01 -8.48831898e-01
292440 -1.99534700e-01 -8.45874067e-01
294400 -2.04175746e-01 -8.43863687e-01
296360 -2.09288619e-01 -8.42596147e-01
298320 -2.15397802e-01 -8.41711656e-01
300280 -2.22434138e-01 -8.40477932e-01
302240 -2.29901538e-01 -8.38712464e-01
304200 -2.37577646e-01 -8.36383669e-01
306160 -2.45489824e-01 -8.33717035e-01
308120 -2.53649124e-01 -8.30384404e-01
310080 -2.62088342e-01 -8.26505932e-01
312040 -2.70842452e-01 -8.21715713e-01
314000 -2.79739942e-01 -8.15765683e-01
315960 -2.88466189e-01 -8.08127597e-01
317920 -2.96265331e-01 -7.98627454e-01
319880 -3.01834614e-01 -7.87281300e-01
321840 -3.04062527e-01 -7.75046555e-01
323800 -3.02463148e-01 -7.64417176e-01
325760 -2.99312998e-01 -7.57278361e-01
327720 -2.97009091e-01 -7.53045470e-01
329680 -2.96940627e-01 -7.50083640e-01
331640 -2.99513188e-01 -7.46444364e-01
333600 -3.03875727e-01 -7.39055985e-01
335560 -3.05161526e-01 -7.26441771e-01
337520 -2.99357183e-01 -7.12384836e-01
339480 -2.86786226e-01 -7.01697279e-01
341440 -2.70015912e-01 -6.97286390e-01
343400 -2.52216838e-01 -7.00275928e-01
345360 -2.36854362e-01 -7.10952106e-01
347320 -2.27489337e-01 -7.26965331e-01
349280 -2.25137520e-01 -7.44677169e-01
351240 -2.28879169e-01 -7.61334784e-01
353200 -2.37041055e-01 -7.75375015e-01
355160 -2.48210556e-01 -7.85875243e-01
357120 -2.60578006e-01 -7.92648435e-01
359080 -2.72809289e-01 -7.96367182e-01
361040 -2.84277262e-01 -7.97829589e-01
363000 -2.94681340e-01 -7.97747941e-01
364960 -3.04098994e-01 -7.96658695e-01
366920 -3.12572579e-01 -7.94995933e-01
368880 -3.20263693e-01 -7.92943440e-01
370840 -3.27341650e-01 -7.90758739e-01
372800 -3.34048840e-01 -7.88583691e-01
374760 -3.40599037e-01 -7.86273049e-01
376720 -3.47021549e-01 -7.83584135e-01
378680 -3.53156766e-01 -7.80463042e-01
380640 -3.58692329e-01 -7.76887694e-01
382600 -3.63574359e-01 -7.73224038e-01
384560 -3.67972975e-01 -7.69640682e-01
386520 -3.71974822e-01 -7.66180974e-01
388480 -3.75642134e-01 -7.62670901e-01
390440 -3.78903061e-01 -7.59196908e-01
392400 -3.81586576e-01 -7.55811371e-01
394360 -3.83811971e-01 -7.52840102e-01
396320 -3.85713371e-01 -7.50327945e-01
398280 -3.87584523e-01 -7.48546891e-01
400240 -3.89909283e-01 -7.47176571e-01
402200 -3.92631634e-01 -7.45623614e-01
404160 -3.95239990e-01 -7.43778327e-01
406120 -3.97458137e-01 -7.42057383e-01
408080 -3.99467361e-01 -7.40758469e-01
410040 -4.01262139e-01 -7.39892218e-01
412000 -4.03322932e-01 -7.39663265e-01
413960 -4.05901715e-01 -7.39553684e-01
415920 -4.08909616e-01 -7.39190867e-01
417880 -4.11800574e-01 -7.38176332e-01
419840 -4.14469474e-01 -7.37159459e-01
421800 -4.16828984e-01 -7.36254246e-01
423760 -4.19062034e-01 -7.35837755e-01
425720 -4.21604189e-01 -7.35810419e-01
427680 -4.24751306e-01 -7.36107353e-01
429640 -4.28429444e-01 -7.36021402e-01
431600 -4.32176519e-01 -7.35501929e-01
433560 -4.35794155e-01 -7.34765905e-01
435520 -4.39304125e-01 -7.34023289e-01
437480 -4.42785610e-01 -7.33309443e-01
439440 -4.46263483e-01 -7.32719924e-01
441400 -4.50039606e-01 -7.32275932e-01
443360 -4.54154327e-01 -7.31613045e-01
445320 -4.58327519e-01 -7.30649882e-01
447280 -4.62515832e-01 -7.29520438e-01
449240 -4.66771930e-01 -7.28272040e-01
451200 -4.71067518e-01 -7.26753979e-01
453160 -4.75226897e-01 -7.24972539e-01
455120 -4.79252419e-01 -7.23044504e-01
457080 -4.83131278e-01 -7.20953365e-01
459040 -4.86865540e-01 -7.18801677e-01
461000 -4.90499178e-01 -7.16567634e-01
462960 -4.94020183e-01 -7.14314359e-01
464920 -4.97514265e-01 -7.12011038e-01
466880 -5.00901552e-01 -7.09619215e-01
468840 -5.04252515e-01 -7.07115590e-01
470800 -5.07449728e-01 -7.04457986e-01
472760 -5.10499034e-01 -7.01675879e-01
474720 -5.13347145e-01 -6.98691140e-01
476680 -5.15831777e-01 -6.95630100e-01
478640 -5.17526564e-01 -6.92235747e-01
480600 -5.18761579e-01 -6.89164041e-01
482560 -5.19735363e-01 -6.86593585e-01
484520 -5.20594431e-01 -6.84575839e-01
486480 -5.21702965e-01 -6.83073005e-01
488440 -5.23501256e-01 -6.82201278e-01
490400 -5.25738273e-01 -6.81407520e-01
492360 -5.28303920e-01 -6.80437298e-01
494320 -5.31021787e-01 -6.79302906e-01
496280 -5.33793624e-01 -6.77990726e-01
498240 -5.36559979e-01 -6.76597667e-01
500200 -5.39348131e-01 -6.75114782e-01
502160 -5.42133339e-01 -6.73527855e-01
504120 -5.44964124e-01 -6.71875855e-01
506080 -5.47752850e-01 -6.70102603e-01
508040 -5.50544858e-01 -6.68245441e-01
510000 -5.53296620e-01 -6.66254413e-01
511960 -5.55928823e-01 -6.64205943e-01
513920 -5.58522686e-01 -6.62107111e-01
515880 -5.61048205e-01 -6.59989576e-01
517840 -5.63490229e-01 -6.57833273e-01
519800 -5.65813469e-01 -6.55677091e-01
521760 -5.68146964e-01 -6.53568346e-01
523720 -5.70411696e-01 -6.51407640e-01
525680 -5.72586382e-01 -6.49218086e-01
527640 -5.74697494e-01 -6.46984229e-01
529600 -5.76699055e-01 -6.44728152e-01
531560 -5.78570919e-01 -6.42467300e-01
533520 -5.80254760e-01 -6.40285008e-01
535480 -5.81894196e-01 -6.38246081e-01
537440 -5.83513690e-01 -6.36369762e-01
539400 -5.85244608e-01 -6.34647213e-01
541360 -5.87098379e-01 -6.32929817e-01
543320 -5.89056212e-01 -6.31180270e-01
545280 -5.91081769e-01 -6.29268583e-01
547240 -5.93020356e-01 -6.27183285e-01
549200 -5.94833095e-01 -6.24952766e-01
551160 -5.96392503e-01 -6.22681216e-01
553120 -5.97759110e-01 -6.20459220e-01
555080 -5.98887059e-01 -6.18395116e-01
557040 -5.99899193e-01 -6.16587437e-01
559000 -6.00873248e-01 -6.15044234e-01
560960 -6.01959876e-01 -6.13777896e-01
562920 -6.03268320e-01 -6.12676324e-01
564880 -6.04818184e-01 -6.11630433e-01
566840 -6.06638438e-01 -6.10536369e-01
568800 -6.08570779e-01 -6.09236906e-01
570760 -6.10541659e-01 -6.07782253e-01
572720 -6.12440228e-01 -6.06161687e-01
574680 -6.14271129e-01 -6.04500958e-01
576640 -6.16014047e-01 -6.02775597e-01
578600 -6.17735940e-01 -6.01107661e-01
580560 -6.19479136e-01 -5.99405340e-01
582520 -6.21183220e-01 -5.97673022e-01
584480 -6.22886269e-01 -5.95935603e-01
586440 -6.24540133e-01 -5.94161007e-01
588400 -6.26212165e-01 -5.92372648e-01
590360 -6.27852395e-01 -5.90505114e-01
592320 -6.29434553e-01 -5.88590548e-01
594280 -6.30927206e-01 -5.86550380e-01
596240 -6.32234094e-01 -5.84460200e-01
598200 -6.33386716e-01 -5.82393284e-01
600160 -6.34325542e-01 -5.80423293e-01
602120 -6.35159139e-01 -5.78618220e-01
604080 -6.36475166e-01 -5.77437188e-01
606040 -6.37800626e-01 -5.76492478e-01
608000 -6.39178051e-01 -5.75768492e-01
609960 -6.40680107e-01 -5.75265033e-01
611920 -6.42432253e-01 -5.74873839e-01
613880 -6.43863199e-01 -5.74055023e-01
615840 -6.45537230e-01 -5.73167509e-01
617800 -6.47361822e-01 -5.72070908e-01
619760 -6.49289420e-01 -5.70752739e-01
621720 -6.51210103e-01 -5.69230326e-01
623680 -6.53028858e-01 -5.67555839e-01
625640 -6.54785436e-01 -5.65734190e-01
627600 -6.56378140e-01 -5.63801795e-01
629560 -6.57852817e-01 -5.61815418e-01
631520 -6.59125351e-01 -5.59788443e-01
633480 -6.60235727e-01 -5.57833684e-01
635440 -6.61219575e-01 -5.56012730e-01
637400 -6.62172875e-01 -5.54395336e-01
639360 -6.63194838e-01 -5.52893047e-01
641320 -6.64308525e-01 -5.51465058e-01
643280 -6.65567065e-01 -5.50019150e-01
645240 -6.66891514e-01 -5.48482238e-01
647200 -6.68256602e-01 -5.46815877e-01
649160 -6.69535053e-01 -5.45035453e-01
651120 -6.70747828e-01 -5.43213922e-01
653080 -6.71880706e-01 -5.41357150e-01
655040 -6.72948788e-01 -5.39473190e-01
657000 -6.73968481e-01 -5.37593673e-01
658960 -6.74923019e-01 -5.35684081e-01
660920 -6.75779149e-01 -5.33753294e-01
662880 -6.76514900e-01 -5.31772523e-01
664840 -6.76911180e-01 -5.29680448e-01
666800 -6.77041220e-01 -5.27606103e-01
668760 -6.76950762e-01 -5.25727473e-01
670720 -6.76693225e-01 -5.24063996e-01
672680 -6.76345253e-01 -5.22731806e-01
674640 -6.76206065e-01 -5.21860318e-01
676600 -6.76255387e-01 -5.21306461e-01
678560 -6.76573809e-01 -5.20958509e-01
680520 -6.77209856e-01 -5.20713556e-01
682480 -6.78147825e-01 -5.20469119e-01
684440 -6.79350631e-01 -5.20120069e-01
686400 -6.80760984e-01 -5.19594867e-01
688360 -6.82304214e-01 -5.18852482e-01
690320 -6.83905849e-01 -5.17887587e-01
692280 -6.85456271e-01 -5.16737220e-01
694240 -6.86928246e-01 -5.15405864e-01
696200 -6.88241855e-01 -5.13977012e-01
698160 -6.89442301e-01 -5.12526434e-01
700120 -6.90526084e-01 -5.11077861e-01
702080 -6.91550889e-01 -5.09648751e-01
704040 -6.92527894e-01 -5.08283536e-01
706000 -6.93481370e-01 -5.06958622e-01
707960 -6.94436569e-01 -5.05648314e-01
709920 -6.95382893e-01 -5.04391886e-01
711880 -6.96367533e-01 -5.03129201e-01
713840 -6.97365867e-01 -5.01865335e-01
715800 -6.98452156e-01 -5.00600151e-01
717760 -6.99551772e-01 -4.99255764e-01
719720 -7.00668447e-01 -4.97830429e-01
721680 -7.01749789e-01 -4.96311906e-01
723640 -7.02762260e-01 -4.94701413e-01
725600 -7.03646597e-01 -4.92990082e-01
727560 -7.04385845e-01 -4.91259609e-01
729520 -7.04983210e-01 -4.89528153e-01
731480 -7.05434325e-01 -4.87832441e-01
733440 -7.05771807e-01 -4.86208048e-01
735400 -7.05980167e-01 -4.84657649e-01
737360 -7.06078929e-01 -4.83235589e-01
739320 -7.06075994e-01 -4.81949992e-01
741280 -7.06007607e-01 -4.80846618e-01
743240 -7.05880900e-01 -4.79966361e-01
745200 -7.05803684e-01 -4.79382517e-01
747160 -7.05875178e-01 -4.79059993e-01
749120 -7.06227504e-01 -4.78932104e-01
751080 -7.06907136e-01 -4.78900174e-01
753040 -7.07941948e-01 -4.78782300e-01
755000 -7.09231577e-01 -4.78452051e-01
756960 -7.10684697e-01 -4.77844629e-01
758920 -7.12126843e-01 -4.76955271e-01
760880 -7.13458485e-01 -4.75831574e-01
762840 -7.14637235e-01 -4.74596955e-01
764800 -7.15650149e-01 -4.73300651e-01
766760 -7.16498805e-01 -4.71985222e-01
768720 -7.17224801e-01 -4.70722637e-01
770680 -7.17872435e-01 -4.69535326e-01
772640 -7.18450689e-01 -4.68435336e-01
774600 -7.19051721e-01 -4.67429063e-01
776560 -7.19686079e-01 -4.66530150e-01
778520 -7.20379187e-01 -4.65666254e-01
780480 -7.21113362e-01 -4.64831359e-01
782440 -7.21908008e-01 -4.63990464e-01
784400 -7.22721480e-01 -4.63118860e-01
786360 -7.23545144e-01 -4.62221577e-01
788320 -7.24413740e-01 -4.61347916e-01
790280 -7.25280351e-01 -4.60449003e-01
792240 -7.26187895e-01 -4.59540607e-01
794200 -7.27111271e-01 -4.58628553e-01
796160 -7.28083445e-01 -4.57670893e-01
798120 -7.29017553e-01 -4.56618582e-01
800080 -7.30359357e-01 -4.55662235e-01
802040 -7.31667935e-01 -4.54652222e-01
804000 -7.32873638e-01 -4.53623357e-01
805960 -7.33985210e-01 -4.52622779e-01
807920 -7.35001205e-01 -4.51725980e-01
809880 -7.35613975e-01 -4.50821445e-01
811840 -7.36207565e-01 -4.49983276e-01
813800 -7.36946470e-01 -4.49237222e-01
815760 -7.37757889e-01 -4.48475770e-01
817720 -7.38683001e-01 -4.47696854e-01
819680 -7.39647982e-01 -4.46824941e-01
821640 -7.40640161e-01 -4.45948703e-01
823600 -7.41636513e-01 -4.44980276e-01
825560 -7.42643205e-01 -4.43979481e-01
827520 -7.43674281e-01 -4.42913004e-01
829480 -7.44671365e-01 -4.41762594e-01
831440 -7.45671510e-01 -4.40549734e-01
833400 -7.46609973e-01 -4.39281385e-01
835360 -7.47475767e-01 -4.37975221e-01
837320 -7.48303106e-01 -4.36638969e-01
839280 -7.49041812e-01 -4.35333186e-01
841240 -7.49760227e-01 -4.33998747e-01
843200 -7.50415890e-01 -4.32655773e-01
845160 -7.51063813e-01 -4.31351560e-01
847120 -7.51620507e-01 -4.30001501e-01
849080 -7.52189310e-01 -4.28674294e-01
851040 -7.52660054e-01 -4.27336911e-01
853000 -7.53043048e-01 -4.26069902e-01
854960 -7.53392556e-01 -4.24861250e-01
856920 -7.53666221e-01 -4.23783052e-01
858880 -7.53904965e-01 -4.22818947e-01
860840 -7.54157813e-01 -4.21960766e-01
862800 -7.54502889e-01 -4.21198450e-01
864760 -7.54921600e-01 -4.20429806e-01
866720 -7.55432227e-01 -4.19637416e-01
868680 -7.56038965e-01 -4.18778655e-01
870640 -7.56641238e-01 -4.17859498e-01
872600 -7.57255824e-01 -4.16886353e-01
874560 -7.57785502e-01 -4.15880503e-01
876520 -7.58304332e-01 -4.14938975e-01
878480 -7.58796703e-01 -4.13992921e-01
880440 -7.59308832e-01 -4.13116993e-01
882400 -7.59821958e-01 -4.12229702e-01
884360 -7.60356812e-01 -4.11359659e-01
886320 -7.60906896e-01 -4.10460564e-01
888280 -7.61420386e-01 -4.09575879e-01
890240 -7.61953155e-01 -4.08711952e-01
892200 -7.62492959e-01 -4.07859107e-01
894160 -7.63054707e-01 -4.07055064e-01
896120 -7.63659219e-01 -4.06259162e-01
898080 -7.64281115e-01 -4.05454208e-01
900040 -7.64946717e-01 -4.04617843e-01
902000 -7.65614385e-01 -4.03742401e-01
903960 -7.66303689e-01 -4.02837734e-01
905920 -7.66982442e-01 -4.01869264e-01
907880 -7.67675842e-01 -4.00906174e-01
909840 -7.68336043e-01 -3.99888262e-01
911800 -7.68982511e-01 -3.98880881e-01
913760 -7.69623305e-01 -3.97844016e-01
915720 -7.70220636e-01 -3.96802132e-01
917680 -7.70809360e-01 -3.95740921e-01
919640 -7.71381553e-01 -3.94672176e-01
921600 -7.71923958e-01 -3.93612987e-01
923560 -7.72413381e-01 -3.92535405e-01
925520 -7.72861398e-01 -3.91495043e-01
927480 -7.73280894e-01 -3.90463871e-01
929440 -7.73654513e-01 -3.89480824e-01
931400 -7.74035280e-01 -3.88537810e-01
933360 -7.74400834e-01 -3.87627376e-01
935320 -7.74802831e-01 -3.86762539e-01
937280 -7.75215753e-01 -3.85896489e-01
939240 -7.75674188e-01 -3.85071990e-01
941200 -7.76164395e-01 -3.84186915e-01
943160 -7.76673451e-01 -3.83318849e-01
945120 -7.77200797e-01 -3.82415277e-01
947080 -7.77719209e-01 -3.81492643e-01
949040 -7.78242631e-01 -3.80545968e-01
951000 -7.78722504e-01 -3.79591429e-01
952960 -7.79200787e-01 -3.78636421e-01
954920 -7.79664881e-01 -3.77655917e-01
956880 -7.80121702e-01 -3.76711738e-01
958840 -7.80576312e-01 -3.75752591e-01
960800 -7.81022168e-01 -3.74799245e-01
962760 -7.81480510e-01 -3.73831360e-01
964720 -7.81919047e-01 -3.72840723e-01
966680 -7.82364859e-01 -3.71848030e-01
968640 -7.82764778e-01 -3.70804838e-01
970600 -7.83166968e-01 -3.69793108e-01
972560 -7.83535905e-01 -3.68748696e-01
974520 -7.83852705e-01 -3.67723718e-01
976480 -7.84143460e-01 -3.66685974e-01
978440 -7.84396545e-01 -3.65679182e-01
980400 -7.84597407e-01 -3.64680961e-01
982360 -7.84733750e-01 -3.63715324e-01
984320 -7.84848057e-01 -3.62811883e-01
986280 -7.84916830e-01 -3.61932685e-01
988240 -7.84981689e-01 -3.61161701e-01
990200 -7.85063065e-01 -3.60446751e-01
992160 -7.85191903e-01 -3.59824091e-01
994120 -7.85388058e-01 -3.59234066e-01
996080 -7.85646797e-01 -3.58694739e-01
998040 -7.85778479e-01 -3.58420433e-01
1000000 -7.85930886e-01 -3.58155260e-01
